/tmp/slurmd/job36176888/slurm_script: line 63: warning: here-document at line 32 delimited by end-of-file (wanted `EOF')
 Entering Gaussian System, Link 0=g16
 Initial command:
 /software/gaussian-16RevA.03-el7-x86_64/g16/l1.exe "/project/depablo/riccardo/REDX/DMREF-Battery/monomers/QC/NMPHTH/Gau-7959.inp" -scrdir="/project/depablo/riccardo/REDX/DMREF-Battery/monomers/QC/NMPHTH/"
 Entering Link 1 = /software/gaussian-16RevA.03-el7-x86_64/g16/l1.exe PID=      7960.
  
 Copyright (c) 1988,1990,1992,1993,1995,1998,2003,2009,2016,
            Gaussian, Inc.  All Rights Reserved.
  
 This is part of the Gaussian(R) 16 program.  It is based on
 the Gaussian(R) 09 system (copyright 2009, Gaussian, Inc.),
 the Gaussian(R) 03 system (copyright 2003, Gaussian, Inc.),
 the Gaussian(R) 98 system (copyright 1998, Gaussian, Inc.),
 the Gaussian(R) 94 system (copyright 1995, Gaussian, Inc.),
 the Gaussian 92(TM) system (copyright 1992, Gaussian, Inc.),
 the Gaussian 90(TM) system (copyright 1990, Gaussian, Inc.),
 the Gaussian 88(TM) system (copyright 1988, Gaussian, Inc.),
 the Gaussian 86(TM) system (copyright 1986, Carnegie Mellon
 University), and the Gaussian 82(TM) system (copyright 1983,
 Carnegie Mellon University). Gaussian is a federally registered
 trademark of Gaussian, Inc.
  
 This software contains proprietary and confidential information,
 including trade secrets, belonging to Gaussian, Inc.
  
 This software is provided under written license and may be
 used, copied, transmitted, or stored only in accord with that
 written license.
  
 The following legend is applicable only to US Government
 contracts under FAR:
  
                    RESTRICTED RIGHTS LEGEND
  
 Use, reproduction and disclosure by the US Government is
 subject to restrictions as set forth in subparagraphs (a)
 and (c) of the Commercial Computer Software - Restricted
 Rights clause in FAR 52.227-19.
  
 Gaussian, Inc.
 340 Quinnipiac St., Bldg. 40, Wallingford CT 06492
  
  
 ---------------------------------------------------------------
 Warning -- This program may not be used in any manner that
 competes with the business of Gaussian, Inc. or will provide
 assistance to any competitor of Gaussian, Inc.  The licensee
 of this program is prohibited from giving any competitor of
 Gaussian, Inc. access to this program.  By using this program,
 the user acknowledges that Gaussian, Inc. is engaged in the
 business of creating and licensing software in the field of
 computational chemistry and represents and warrants to the
 licensee that it is not a competitor of Gaussian, Inc. and that
 it will not use this program in any manner prohibited above.
 ---------------------------------------------------------------
  

 Cite this work as:
 Gaussian 16, Revision A.03,
 M. J. Frisch, G. W. Trucks, H. B. Schlegel, G. E. Scuseria, 
 M. A. Robb, J. R. Cheeseman, G. Scalmani, V. Barone, 
 G. A. Petersson, H. Nakatsuji, X. Li, M. Caricato, A. V. Marenich, 
 J. Bloino, B. G. Janesko, R. Gomperts, B. Mennucci, H. P. Hratchian, 
 J. V. Ortiz, A. F. Izmaylov, J. L. Sonnenberg, D. Williams-Young, 
 F. Ding, F. Lipparini, F. Egidi, J. Goings, B. Peng, A. Petrone, 
 T. Henderson, D. Ranasinghe, V. G. Zakrzewski, J. Gao, N. Rega, 
 G. Zheng, W. Liang, M. Hada, M. Ehara, K. Toyota, R. Fukuda, 
 J. Hasegawa, M. Ishida, T. Nakajima, Y. Honda, O. Kitao, H. Nakai, 
 T. Vreven, K. Throssell, J. A. Montgomery, Jr., J. E. Peralta, 
 F. Ogliaro, M. J. Bearpark, J. J. Heyd, E. N. Brothers, K. N. Kudin, 
 V. N. Staroverov, T. A. Keith, R. Kobayashi, J. Normand, 
 K. Raghavachari, A. P. Rendell, J. C. Burant, S. S. Iyengar, 
 J. Tomasi, M. Cossi, J. M. Millam, M. Klene, C. Adamo, R. Cammi, 
 J. W. Ochterski, R. L. Martin, K. Morokuma, O. Farkas, 
 J. B. Foresman, and D. J. Fox, Gaussian, Inc., Wallingford CT, 2016.
 
 ******************************************
 Gaussian 16:  ES64L-G16RevA.03 25-Dec-2016
                28-Feb-2024 
 ******************************************
 %nprocshared=28
 Will use up to   28 processors via shared memory.
 %mem=16GB
 %Chk=NMPHTH-cavity-in-THF-wB97XD.chk
 ----------------------------------------------------------------------
 #P wB97XD/Def2SVPP opt=(MaxCycles=500, RecalcFC=50) freq scrf=(pcm,sol
 vent=TetraHydroFuran) nosymm int(grid=ultrafine) scf=(xqc,tight)
 ----------------------------------------------------------------------
 1/6=500,10=4,18=20,19=15,26=6,38=1,71=50/1,3;
 2/9=110,12=2,15=1,17=6,18=5,40=1/2;
 3/5=43,7=202,11=2,25=1,30=1,70=2201,71=2,72=20,74=-58,75=-5,140=1/1,2,3;
 4//1;
 5/5=2,8=3,13=1,32=2,38=5,53=20/2,8;
 8/6=4,10=90,11=11/1;
 11/6=1,8=1,9=11,15=111,16=1,31=1/1,2,10;
 10/6=1,31=1/2;
 6/7=2,8=2,9=2,10=2,28=1/1;
 7/10=1,25=1,30=1/1,2,3,16;
 1/6=500,10=4,18=20,19=15,26=6,71=50/3(3);
 2/9=110,15=1/2;
 7/9=1,25=1,30=1,44=-1/16;
 99//99;
 2/9=110,15=1/2;
 3/5=43,7=202,11=2,25=1,30=1,70=2205,71=2,72=20,74=-58,75=-5,140=1/1,2,3;
 4/5=5,16=3,69=1/1;
 5/5=2,8=3,13=1,32=2,38=5,53=20/2,8;
 8/6=4,10=90,11=11/1;
 11/6=1,8=1,9=11,15=111,16=1,31=1/1,2,10;
 10/6=1,31=1/2;
 7/10=1,25=1,30=1/1,2,3,16;
 1/6=500,18=20,19=15,26=6,71=50/3(-8);
 2/9=110,15=1/2;
 6/7=2,8=2,9=2,10=2,19=2,28=1/1;
 7/9=1,25=1,30=1,44=-1/16;
 99/9=1/99;
 Leave Link    1 at Wed Feb 28 20:58:29 2024, MaxMem=  2147483648 cpu:               4.6 elap:               0.2
 (Enter /software/gaussian-16RevA.03-el7-x86_64/g16/l101.exe)
 ---------------------
 Cavity NMPHTH solvent
 ---------------------
 Symbolic Z-matrix:
 Charge =  0 Multiplicity = 1
 C                    -3.16632   0.26561   0.22002 
 N                    -1.73218   0.15651   0.1236 
 C                    -1.087    -0.99452  -0.23796 
 O                    -1.55429  -2.07856  -0.52983 
 C                     0.34292  -0.69155  -0.21521 
 C                     1.43281  -1.49213  -0.49571 
 C                     2.69896  -0.9084   -0.38447 
 C                     2.84249   0.44179  -0.0011 
 C                     1.72234   1.23167   0.27768 
 C                     0.48345   0.63244   0.16073 
 C                    -0.85676   1.17564   0.37825 
 O                    -1.08153   2.32101   0.71914 
 H                    -3.60391   0.02348  -0.75304 
 H                    -3.52693  -0.46758   0.94759 
 H                    -3.46497   1.27176   0.52406 
 H                     1.3073   -2.52922  -0.78948 
 H                     3.58673  -1.50214  -0.59609 
 H                     3.83919   0.87279   0.07824 
 H                     1.8177    2.27138   0.57358 
 
 ITRead=  0  0  0  0  0  0  0  0  0  0  0  0  0  0  0  0  0  0  0
 MicOpt= -1 -1 -1 -1 -1 -1 -1 -1 -1 -1 -1 -1 -1 -1 -1 -1 -1 -1 -1
 NAtoms=     19 NQM=       19 NQMF=       0 NMMI=      0 NMMIF=      0
                NMic=       0 NMicF=      0.
                    Isotopes and Nuclear Properties:
 (Nuclear quadrupole moments (NQMom) in fm**2, nuclear magnetic moments (NMagM)
  in nuclear magnetons)

  Atom         1           2           3           4           5           6           7           8           9          10
 IAtWgt=          12          14          12          16          12          12          12          12          12          12
 AtmWgt=  12.0000000  14.0030740  12.0000000  15.9949146  12.0000000  12.0000000  12.0000000  12.0000000  12.0000000  12.0000000
 NucSpn=           0           2           0           0           0           0           0           0           0           0
 AtZEff=  -0.0000000  -0.0000000  -0.0000000  -0.0000000  -0.0000000  -0.0000000  -0.0000000  -0.0000000  -0.0000000  -0.0000000
 NQMom=    0.0000000   2.0440000   0.0000000   0.0000000   0.0000000   0.0000000   0.0000000   0.0000000   0.0000000   0.0000000
 NMagM=    0.0000000   0.4037610   0.0000000   0.0000000   0.0000000   0.0000000   0.0000000   0.0000000   0.0000000   0.0000000
 AtZNuc=   6.0000000   7.0000000   6.0000000   8.0000000   6.0000000   6.0000000   6.0000000   6.0000000   6.0000000   6.0000000

  Atom        11          12          13          14          15          16          17          18          19
 IAtWgt=          12          16           1           1           1           1           1           1           1
 AtmWgt=  12.0000000  15.9949146   1.0078250   1.0078250   1.0078250   1.0078250   1.0078250   1.0078250   1.0078250
 NucSpn=           0           0           1           1           1           1           1           1           1
 AtZEff=  -0.0000000  -0.0000000  -0.0000000  -0.0000000  -0.0000000  -0.0000000  -0.0000000  -0.0000000  -0.0000000
 NQMom=    0.0000000   0.0000000   0.0000000   0.0000000   0.0000000   0.0000000   0.0000000   0.0000000   0.0000000
 NMagM=    0.0000000   0.0000000   2.7928460   2.7928460   2.7928460   2.7928460   2.7928460   2.7928460   2.7928460
 AtZNuc=   6.0000000   8.0000000   1.0000000   1.0000000   1.0000000   1.0000000   1.0000000   1.0000000   1.0000000
 Leave Link  101 at Wed Feb 28 20:58:31 2024, MaxMem=  2147483648 cpu:              10.8 elap:               0.8
 (Enter /software/gaussian-16RevA.03-el7-x86_64/g16/l103.exe)

 GradGradGradGradGradGradGradGradGradGradGradGradGradGradGradGradGradGrad
 Berny optimization.
 Initialization pass.
                           ----------------------------
                           !    Initial Parameters    !
                           ! (Angstroms and Degrees)  !
 --------------------------                            --------------------------
 ! Name  Definition              Value          Derivative Info.                !
 --------------------------------------------------------------------------------
 ! R1    R(1,2)                  1.4415         calculate D2E/DX2 analytically  !
 ! R2    R(1,13)                 1.0941         calculate D2E/DX2 analytically  !
 ! R3    R(1,14)                 1.0941         calculate D2E/DX2 analytically  !
 ! R4    R(1,15)                 1.0927         calculate D2E/DX2 analytically  !
 ! R5    R(2,3)                  1.3682         calculate D2E/DX2 analytically  !
 ! R6    R(2,11)                 1.3674         calculate D2E/DX2 analytically  !
 ! R7    R(3,4)                  1.216          calculate D2E/DX2 analytically  !
 ! R8    R(3,5)                  1.4618         calculate D2E/DX2 analytically  !
 ! R9    R(5,6)                  1.3811         calculate D2E/DX2 analytically  !
 ! R10   R(5,10)                 1.3835         calculate D2E/DX2 analytically  !
 ! R11   R(6,7)                  1.3987         calculate D2E/DX2 analytically  !
 ! R12   R(6,16)                 1.0852         calculate D2E/DX2 analytically  !
 ! R13   R(7,8)                  1.4109         calculate D2E/DX2 analytically  !
 ! R14   R(7,17)                 1.0888         calculate D2E/DX2 analytically  !
 ! R15   R(8,9)                  1.3987         calculate D2E/DX2 analytically  !
 ! R16   R(8,18)                 1.0888         calculate D2E/DX2 analytically  !
 ! R17   R(9,10)                 1.3812         calculate D2E/DX2 analytically  !
 ! R18   R(9,19)                 1.0852         calculate D2E/DX2 analytically  !
 ! R19   R(10,11)                1.4624         calculate D2E/DX2 analytically  !
 ! R20   R(11,12)                1.216          calculate D2E/DX2 analytically  !
 ! A1    A(2,1,13)             108.7648         calculate D2E/DX2 analytically  !
 ! A2    A(2,1,14)             108.7648         calculate D2E/DX2 analytically  !
 ! A3    A(2,1,15)             111.114          calculate D2E/DX2 analytically  !
 ! A4    A(13,1,14)            108.1386         calculate D2E/DX2 analytically  !
 ! A5    A(13,1,15)            109.9957         calculate D2E/DX2 analytically  !
 ! A6    A(14,1,15)            109.9957         calculate D2E/DX2 analytically  !
 ! A7    A(1,2,3)              123.4019         calculate D2E/DX2 analytically  !
 ! A8    A(1,2,11)             124.6149         calculate D2E/DX2 analytically  !
 ! A9    A(3,2,11)             111.9831         calculate D2E/DX2 analytically  !
 ! A10   A(2,3,4)              129.2134         calculate D2E/DX2 analytically  !
 ! A11   A(2,3,5)              106.4271         calculate D2E/DX2 analytically  !
 ! A12   A(4,3,5)              124.3595         calculate D2E/DX2 analytically  !
 ! A13   A(3,5,6)              130.4366         calculate D2E/DX2 analytically  !
 ! A14   A(3,5,10)             107.5735         calculate D2E/DX2 analytically  !
 ! A15   A(6,5,10)             121.9899         calculate D2E/DX2 analytically  !
 ! A16   A(5,6,7)              117.1485         calculate D2E/DX2 analytically  !
 ! A17   A(5,6,16)             121.1778         calculate D2E/DX2 analytically  !
 ! A18   A(7,6,16)             121.6737         calculate D2E/DX2 analytically  !
 ! A19   A(6,7,8)              120.8705         calculate D2E/DX2 analytically  !
 ! A20   A(6,7,17)             119.675          calculate D2E/DX2 analytically  !
 ! A21   A(8,7,17)             119.4545         calculate D2E/DX2 analytically  !
 ! A22   A(7,8,9)              120.8719         calculate D2E/DX2 analytically  !
 ! A23   A(7,8,18)             119.4555         calculate D2E/DX2 analytically  !
 ! A24   A(9,8,18)             119.6726         calculate D2E/DX2 analytically  !
 ! A25   A(8,9,10)             117.1593         calculate D2E/DX2 analytically  !
 ! A26   A(8,9,19)             121.6704         calculate D2E/DX2 analytically  !
 ! A27   A(10,9,19)            121.1704         calculate D2E/DX2 analytically  !
 ! A28   A(5,10,9)             121.96           calculate D2E/DX2 analytically  !
 ! A29   A(5,10,11)            107.6261         calculate D2E/DX2 analytically  !
 ! A30   A(9,10,11)            130.414          calculate D2E/DX2 analytically  !
 ! A31   A(2,11,10)            106.3902         calculate D2E/DX2 analytically  !
 ! A32   A(2,11,12)            129.4855         calculate D2E/DX2 analytically  !
 ! A33   A(10,11,12)           124.1243         calculate D2E/DX2 analytically  !
 ! D1    D(13,1,2,3)           -58.78           calculate D2E/DX2 analytically  !
 ! D2    D(13,1,2,11)          121.2201         calculate D2E/DX2 analytically  !
 ! D3    D(14,1,2,3)            58.7799         calculate D2E/DX2 analytically  !
 ! D4    D(14,1,2,11)         -121.2201         calculate D2E/DX2 analytically  !
 ! D5    D(15,1,2,3)           179.9999         calculate D2E/DX2 analytically  !
 ! D6    D(15,1,2,11)            0.0            calculate D2E/DX2 analytically  !
 ! D7    D(1,2,3,4)              0.0001         calculate D2E/DX2 analytically  !
 ! D8    D(1,2,3,5)            180.0            calculate D2E/DX2 analytically  !
 ! D9    D(11,2,3,4)          -180.0            calculate D2E/DX2 analytically  !
 ! D10   D(11,2,3,5)            -0.0001         calculate D2E/DX2 analytically  !
 ! D11   D(1,2,11,10)          180.0            calculate D2E/DX2 analytically  !
 ! D12   D(1,2,11,12)            0.0            calculate D2E/DX2 analytically  !
 ! D13   D(3,2,11,10)            0.0001         calculate D2E/DX2 analytically  !
 ! D14   D(3,2,11,12)         -180.0            calculate D2E/DX2 analytically  !
 ! D15   D(2,3,5,6)            180.0            calculate D2E/DX2 analytically  !
 ! D16   D(2,3,5,10)             0.0001         calculate D2E/DX2 analytically  !
 ! D17   D(4,3,5,6)             -0.0001         calculate D2E/DX2 analytically  !
 ! D18   D(4,3,5,10)           180.0            calculate D2E/DX2 analytically  !
 ! D19   D(3,5,6,7)           -180.0            calculate D2E/DX2 analytically  !
 ! D20   D(3,5,6,16)             0.0001         calculate D2E/DX2 analytically  !
 ! D21   D(10,5,6,7)            -0.0001         calculate D2E/DX2 analytically  !
 ! D22   D(10,5,6,16)         -180.0            calculate D2E/DX2 analytically  !
 ! D23   D(3,5,10,9)           180.0            calculate D2E/DX2 analytically  !
 ! D24   D(3,5,10,11)            0.0            calculate D2E/DX2 analytically  !
 ! D25   D(6,5,10,9)             0.0            calculate D2E/DX2 analytically  !
 ! D26   D(6,5,10,11)         -180.0            calculate D2E/DX2 analytically  !
 ! D27   D(5,6,7,8)              0.0001         calculate D2E/DX2 analytically  !
 ! D28   D(5,6,7,17)          -180.0            calculate D2E/DX2 analytically  !
 ! D29   D(16,6,7,8)           180.0            calculate D2E/DX2 analytically  !
 ! D30   D(16,6,7,17)           -0.0001         calculate D2E/DX2 analytically  !
 ! D31   D(6,7,8,9)              0.0            calculate D2E/DX2 analytically  !
 ! D32   D(6,7,8,18)           180.0            calculate D2E/DX2 analytically  !
 ! D33   D(17,7,8,9)          -180.0            calculate D2E/DX2 analytically  !
 ! D34   D(17,7,8,18)            0.0            calculate D2E/DX2 analytically  !
 ! D35   D(7,8,9,10)             0.0            calculate D2E/DX2 analytically  !
 ! D36   D(7,8,9,19)          -180.0            calculate D2E/DX2 analytically  !
 ! D37   D(18,8,9,10)          180.0            calculate D2E/DX2 analytically  !
 ! D38   D(18,8,9,19)            0.0            calculate D2E/DX2 analytically  !
 ! D39   D(8,9,10,5)             0.0            calculate D2E/DX2 analytically  !
 ! D40   D(8,9,10,11)         -180.0            calculate D2E/DX2 analytically  !
 ! D41   D(19,9,10,5)          180.0            calculate D2E/DX2 analytically  !
 ! D42   D(19,9,10,11)           0.0            calculate D2E/DX2 analytically  !
 ! D43   D(5,10,11,2)            0.0            calculate D2E/DX2 analytically  !
 ! D44   D(5,10,11,12)        -180.0            calculate D2E/DX2 analytically  !
 ! D45   D(9,10,11,2)          180.0            calculate D2E/DX2 analytically  !
 ! D46   D(9,10,11,12)           0.0            calculate D2E/DX2 analytically  !
 --------------------------------------------------------------------------------
 Trust Radius=3.00D-01 FncErr=5.00D-06 GrdErr=5.00D-06 EigMax=2.50D+02 EigMin=1.00D-04
 Number of steps in this run=    114 maximum allowed number of steps=    114.
 Step   0 in ReCalcFC=50 IGetFC= 4 compute analytic Hessian.
 GradGradGradGradGradGradGradGradGradGradGradGradGradGradGradGradGradGrad

 Leave Link  103 at Wed Feb 28 20:58:32 2024, MaxMem=  2147483648 cpu:               0.6 elap:               0.1
 (Enter /software/gaussian-16RevA.03-el7-x86_64/g16/l202.exe)
                          Input orientation:                          
 ---------------------------------------------------------------------
 Center     Atomic      Atomic             Coordinates (Angstroms)
 Number     Number       Type             X           Y           Z
 ---------------------------------------------------------------------
      1          6           0       -3.166316    0.265612    0.220018
      2          7           0       -1.732181    0.156507    0.123598
      3          6           0       -1.087004   -0.994520   -0.237962
      4          8           0       -1.554294   -2.078564   -0.529826
      5          6           0        0.342924   -0.691548   -0.215206
      6          6           0        1.432805   -1.492129   -0.495705
      7          6           0        2.698957   -0.908399   -0.384467
      8          6           0        2.842488    0.441794   -0.001098
      9          6           0        1.722344    1.231674    0.277682
     10          6           0        0.483454    0.632442    0.160733
     11          6           0       -0.856757    1.175643    0.378246
     12          8           0       -1.081533    2.321012    0.719144
     13          1           0       -3.603908    0.023477   -0.753041
     14          1           0       -3.526930   -0.467577    0.947585
     15          1           0       -3.464967    1.271762    0.524061
     16          1           0        1.307301   -2.529221   -0.789483
     17          1           0        3.586730   -1.502142   -0.596094
     18          1           0        3.839186    0.872791    0.078236
     19          1           0        1.817701    2.271385    0.573580
 ---------------------------------------------------------------------
                    Distance matrix (angstroms):
                    1          2          3          4          5
     1  C    0.000000
     2  N    1.441508   0.000000
     3  C    2.474109   1.368153   0.000000
     4  O    2.942115   2.335412   1.216016   0.000000
     5  C    3.663378   2.267167   1.461849   2.371125   0.000000
     6  C    4.975322   3.621971   2.581372   3.044311   1.381105
     7  C    6.012082   4.585536   3.789773   4.413679   2.372038
     8  C    6.015452   4.585252   4.190467   5.095434   2.752840
     9  C    4.983533   3.621252   3.621362   4.727166   2.417544
    10  C    3.668637   2.266480   2.296149   3.461046   1.383484
    11  C    2.487419   1.367425   2.267671   3.449785   2.297351
    12  O    2.969868   2.337327   3.450918   4.597793   3.460868
    13  H    1.094057   2.071124   2.763409   2.944371   4.046975
    14  H    1.094058   2.071125   2.763409   2.944370   4.046976
    15  H    1.092690   2.099217   3.372154   3.998254   4.347544
    16  H    5.370608   4.157560   2.896926   2.908477   2.153337
    17  H    7.028131   5.617819   4.714841   5.173662   3.365177
    18  H    7.033195   5.617406   5.277706   6.178176   3.841499
    19  H    5.384102   4.156544   4.445452   5.613369   3.402370
                    6          7          8          9         10
     6  C    0.000000
     7  C    1.398662   0.000000
     8  C    2.443747   1.410884   0.000000
     9  C    2.846237   2.443794   1.398696   0.000000
    10  C    2.417846   2.753160   2.372252   1.381161   0.000000
    11  C    3.622553   4.191427   3.790363   2.581669   1.462376
    12  O    4.726288   5.093050   4.410006   3.040275   2.369024
    13  H    5.266095   6.382033   6.503570   5.557975   4.232298
    14  H    5.266096   6.382034   6.503571   5.557976   4.232299
    15  H    5.715522   6.600946   6.383465   5.193313   4.016312
    16  H    1.085180   2.174352   3.435881   3.931340   3.402609
    17  H    2.156286   1.088787   2.164903   3.422451   3.841817
    18  H    3.422415   2.164914   1.088788   2.156292   3.365340
    19  H    3.931355   3.435912   2.174361   1.085195   2.153321
                   11         12         13         14         15
    11  C    0.000000
    12  O    1.215979   0.000000
    13  H    3.186555   3.715962   0.000000
    14  H    3.186557   3.715963   1.771776   0.000000
    15  H    2.614051   2.611463   1.791231   1.791232   0.000000
    16  H    4.446657   5.613131   5.535121   5.535122   6.240786
    17  H    5.278679   6.175681   7.352375   7.352376   7.660008
    18  H    4.715252   5.169292   7.537374   7.537375   7.328614
    19  H    2.896814   2.903310   6.017213   6.017215   5.376642
                   16         17         18         19
    16  H    0.000000
    17  H    2.507606   0.000000
    18  H    4.328633   2.481685   0.000000
    19  H    5.016400   4.328638   2.507555   0.000000
 Symmetry turned off by external request.
 Stoichiometry    C9H7NO2
 Framework group  C1[X(C9H7NO2)]
 Deg. of freedom    51
 Full point group                 C1      NOp   1
 Rotational constants (GHZ):           1.7370143           0.8925012           0.5917555
 Leave Link  202 at Wed Feb 28 20:58:33 2024, MaxMem=  2147483648 cpu:               2.8 elap:               0.2
 (Enter /software/gaussian-16RevA.03-el7-x86_64/g16/l301.exe)
 Standard basis: def2SVPP (5D, 7F)
 Ernie: Thresh=  0.10000D-02 Tol=  0.10000D-05 Strict=F.
   182 basis functions,   328 primitive gaussians,   194 cartesian basis functions
    42 alpha electrons       42 beta electrons
       nuclear repulsion energy       661.3938959691 Hartrees.
 IExCor= 4639 DFT=T Ex+Corr=wB97XD ExCW=0 ScaHFX=  1.000000
 ScaDFX=  1.000000  1.000000  1.000000  1.000000 ScalE2=  1.000000  1.000000
 IRadAn=      5 IRanWt=     -1 IRanGd=            0 ICorTp=0 IEmpDi=121
 HFx  wShort=  0.000000 wLong=  0.200000 cFull=  0.222036 cShort=  0.000000 cLong=  0.777964
 DFx  wShort=  0.000000 wLong=  0.200000 cFull=  0.000000 cShort=  0.000000 cLong=  1.000000
 NAtoms=   19 NActive=   19 NUniq=   19 SFac= 1.00D+00 NAtFMM=   60 NAOKFM=F Big=F
 Integral buffers will be    131072 words long.
 Raffenetti 2 integral format.
 Two-electron integral symmetry is turned off.
 R6Disp:  Grimme-D2 Dispersion energy=       -0.0101430143 Hartrees.
 Nuclear repulsion after empirical dispersion term =      661.3837529548 Hartrees.
 Force inversion solution in PCM.
 ------------------------------------------------------------------------------
 Polarizable Continuum Model (PCM)
 =================================
 Model                : PCM.
 Atomic radii         : UFF (Universal Force Field).
 Polarization charges : Total charges.
 Charge compensation  : None.
 Solution method      : Matrix inversion.
 Cavity type          : Scaled VdW (van der Waals Surface) (Alpha=1.100).
 Cavity algorithm     : GePol (No added spheres)
                        Default sphere list used, NSphG=   19.
                        Lebedev-Laikov grids with approx.  5.0 points / Ang**2.
                        Smoothing algorithm: York/Karplus (Gamma=1.0000).
                        Polarization charges: spherical gaussians, with
                                              point-specific exponents (IZeta= 3).
                        Self-potential: point-specific (ISelfS= 7).
                        Self-field    : sphere-specific E.n sum rule (ISelfD= 2).
 1st derivatives      : Analytical E(r).r(x)/FMM algorithm (CHGder, D1EAlg=3).
                        Cavity 1st derivative terms included.
 2nd derivatives      : Analytical E(r).r(xy)/FMM algorithm (CHGder, D2EAlg=3).
                        Cavity 2nd derivative terms included.
 Solvent              : TetraHydroFuran, Eps=   7.425700 Eps(inf)=   1.974025
 ------------------------------------------------------------------------------
 Spheres list:
 ISph  on   Nord     Re0    Alpha      Xe            Ye            Ze
    1   C      1    1.9255  1.100     -3.166316      0.265612      0.220018
    2   N      2    1.8300  1.100     -1.732181      0.156507      0.123598
    3   C      3    1.9255  1.100     -1.087004     -0.994520     -0.237962
    4   O      4    1.7500  1.100     -1.554294     -2.078564     -0.529826
    5   C      5    1.9255  1.100      0.342924     -0.691548     -0.215206
    6   C      6    1.9255  1.100      1.432805     -1.492129     -0.495705
    7   C      7    1.9255  1.100      2.698957     -0.908399     -0.384467
    8   C      8    1.9255  1.100      2.842488      0.441794     -0.001098
    9   C      9    1.9255  1.100      1.722344      1.231674      0.277682
   10   C     10    1.9255  1.100      0.483454      0.632442      0.160733
   11   C     11    1.9255  1.100     -0.856757      1.175643      0.378246
   12   O     12    1.7500  1.100     -1.081533      2.321012      0.719144
   13   H     13    1.4430  1.100     -3.603908      0.023477     -0.753041
   14   H     14    1.4430  1.100     -3.526930     -0.467577      0.947585
   15   H     15    1.4430  1.100     -3.464967      1.271762      0.524061
   16   H     16    1.4430  1.100      1.307301     -2.529221     -0.789483
   17   H     17    1.4430  1.100      3.586730     -1.502142     -0.596094
   18   H     18    1.4430  1.100      3.839186      0.872791      0.078236
   19   H     19    1.4430  1.100      1.817701      2.271385      0.573580
 ------------------------------------------------------------------------------
 GePol: Number of generator spheres                  =      19
 GePol: Total number of spheres                      =      19
 GePol: Number of exposed spheres                    =      19 (100.00%)
 GePol: Number of points                             =    1635
 GePol: Average weight of points                     =       0.13
 GePol: Minimum weight of points                     =   0.17D-09
 GePol: Maximum weight of points                     =    0.20577
 GePol: Number of points with low weight             =      78
 GePol: Fraction of low-weight points (<1% of avg)   =       4.77%
 GePol: Cavity surface area                          =    215.005 Ang**2
 GePol: Cavity volume                                =    218.270 Ang**3
 Leave Link  301 at Wed Feb 28 20:58:34 2024, MaxMem=  2147483648 cpu:               3.3 elap:               0.2
 (Enter /software/gaussian-16RevA.03-el7-x86_64/g16/l302.exe)
 NPDir=0 NMtPBC=     1 NCelOv=     1 NCel=       1 NClECP=     1 NCelD=      1
         NCelK=      1 NCelE2=     1 NClLst=     1 CellRange=     0.0.
 One-electron integrals computed using PRISM.
   1 Symmetry operations used in ECPInt.
 ECPInt:  NShTT=    3741 NPrTT=   15055 LenC2=    3667 LenP2D=   11057.
 LDataN:  DoStor=T MaxTD1= 4 Len=   56
 NBasis=   182 RedAO= T EigKep=  2.73D-04  NBF=   182
 NBsUse=   182 1.00D-06 EigRej= -1.00D+00 NBFU=   182
 Precomputing XC quadrature grid using
 IXCGrd= 4 IRadAn=           5 IRanWt=          -1 IRanGd=           0 AccXCQ= 0.00D+00.
 Generated NRdTot=       0 NPtTot=           0 NUsed=           0 NTot=          32
 NSgBfM=   193   193   193   193   193 MxSgAt=    19 MxSgA2=    19.
 Leave Link  302 at Wed Feb 28 20:58:35 2024, MaxMem=  2147483648 cpu:              15.2 elap:               0.6
 (Enter /software/gaussian-16RevA.03-el7-x86_64/g16/l303.exe)
 DipDrv:  MaxL=1.
 Leave Link  303 at Wed Feb 28 20:58:36 2024, MaxMem=  2147483648 cpu:               2.6 elap:               0.2
 (Enter /software/gaussian-16RevA.03-el7-x86_64/g16/l401.exe)
 ExpMin= 1.22D-01 ExpMax= 2.27D+03 ExpMxC= 3.41D+02 IAcc=3 IRadAn=         5 AccDes= 0.00D+00
 Harris functional with IExCor= 4639 and IRadAn=       5 diagonalized for initial guess.
 HarFok:  IExCor= 4639 AccDes= 0.00D+00 IRadAn=         5 IDoV= 1 UseB2=F ITyADJ=14
 ICtDFT=  3500011 ScaDFX=  1.000000  1.000000  1.000000  1.000000
 FoFCou: FMM=F IPFlag=           0 FMFlag=      100000 FMFlg1=           0
         NFxFlg=           0 DoJE=T BraDBF=F KetDBF=T FulRan=T
         wScrn=  0.000000 ICntrl=       500 IOpCl=  0 I1Cent=   200000004 NGrid=           0
         NMat0=    1 NMatS0=      1 NMatT0=    0 NMatD0=    1 NMtDS0=    0 NMtDT0=    0
 Symmetry not used in FoFCou.
 Harris En= -528.806570578189    
 JPrj=0 DoOrth=F DoCkMO=F.
 Leave Link  401 at Wed Feb 28 20:58:37 2024, MaxMem=  2147483648 cpu:              18.9 elap:               0.8
 (Enter /software/gaussian-16RevA.03-el7-x86_64/g16/l502.exe)
 Two-electron integral symmetry not used.
 Closed shell SCF:
 Using DIIS extrapolation, IDIIS=  1040.
 NGot=  2147483648 LenX=  2147401213 LenY=  2147363136
 Requested convergence on RMS density matrix=1.00D-08 within  32 cycles.
 Requested convergence on MAX density matrix=1.00D-06.
 Requested convergence on             energy=1.00D-06.
 No special actions if energy rises.
 Fock matrices will be formed incrementally for  20 cycles.

 Cycle   1  Pass 1  IDiag  1:
 FoFJK:  IHMeth= 1 ICntrl=       0 DoSepK=T KAlg= 0 I1Cent=           0 FoldK=F
 IRaf=         1 NMat=       1 IRICut=       1 DoRegI=T DoRafI=F ISym2E= 0 IDoP0=0 IntGTp=1.
 FoFCou: FMM=F IPFlag=           0 FMFlag=      100000 FMFlg1=           0
         NFxFlg=           0 DoJE=T BraDBF=F KetDBF=F FulRan=T
         wScrn=  0.000000 ICntrl=       500 IOpCl=  0 I1Cent=           0 NGrid=           0
         NMat0=    1 NMatS0=      1 NMatT0=    0 NMatD0=    1 NMtDS0=    0 NMtDT0=    0
 Symmetry not used in FoFCou.
 Inv3:  Mode=1 IEnd=     8019675.
 Iteration    1 A*A^-1 deviation from unit magnitude is 3.11D-15 for   1525.
 Iteration    1 A*A^-1 deviation from orthogonality  is 1.69D-15 for   1193    542.
 Iteration    1 A^-1*A deviation from unit magnitude is 3.11D-15 for    241.
 Iteration    1 A^-1*A deviation from orthogonality  is 1.78D-15 for   1480     54.
 E= -551.710110591007    
 DIIS: error= 3.15D-02 at cycle   1 NSaved=   1.
 NSaved= 1 IEnMin= 1 EnMin= -551.710110591007     IErMin= 1 ErrMin= 3.15D-02
 ErrMax= 3.15D-02  0.00D+00 EMaxC= 1.00D-01 BMatC= 2.46D-01 BMatP= 2.46D-01
 IDIUse=3 WtCom= 6.85D-01 WtEn= 3.15D-01
 Coeff-Com:  0.100D+01
 Coeff-En:   0.100D+01
 Coeff:      0.100D+01
 Gap=     0.384 Goal=   None    Shift=    0.000
 GapD=    0.384 DampG=1.000 DampE=0.500 DampFc=0.5000 IDamp=-1.
 Damping current iteration by 5.00D-01
 RMSDP=4.60D-03 MaxDP=1.00D-01              OVMax= 1.00D-01

 Cycle   2  Pass 1  IDiag  1:
 RMSU=  2.25D-03    CP:  9.84D-01
 E= -551.761322671977     Delta-E=       -0.051212080970 Rises=F Damp=T
 DIIS: error= 1.64D-02 at cycle   2 NSaved=   2.
 NSaved= 2 IEnMin= 2 EnMin= -551.761322671977     IErMin= 2 ErrMin= 1.64D-02
 ErrMax= 1.64D-02  0.00D+00 EMaxC= 1.00D-01 BMatC= 4.62D-02 BMatP= 2.46D-01
 IDIUse=3 WtCom= 8.36D-01 WtEn= 1.64D-01
 Coeff-Com: -0.411D+00 0.141D+01
 Coeff-En:   0.000D+00 0.100D+01
 Coeff:     -0.343D+00 0.134D+01
 Gap=     0.355 Goal=   None    Shift=    0.000
 RMSDP=2.03D-03 MaxDP=5.83D-02 DE=-5.12D-02 OVMax= 8.73D-02

 Cycle   3  Pass 1  IDiag  1:
 RMSU=  1.52D-03    CP:  9.66D-01  1.55D+00
 E= -551.803656091477     Delta-E=       -0.042333419500 Rises=F Damp=F
 DIIS: error= 1.42D-02 at cycle   3 NSaved=   3.
 NSaved= 3 IEnMin= 3 EnMin= -551.803656091477     IErMin= 3 ErrMin= 1.42D-02
 ErrMax= 1.42D-02  0.00D+00 EMaxC= 1.00D-01 BMatC= 1.26D-02 BMatP= 4.62D-02
 IDIUse=3 WtCom= 8.58D-01 WtEn= 1.42D-01
 Coeff-Com: -0.275D+00 0.606D+00 0.669D+00
 Coeff-En:   0.000D+00 0.000D+00 0.100D+01
 Coeff:     -0.236D+00 0.520D+00 0.716D+00
 Gap=     0.339 Goal=   None    Shift=    0.000
 RMSDP=7.31D-04 MaxDP=3.01D-02 DE=-4.23D-02 OVMax= 3.94D-02

 Cycle   4  Pass 1  IDiag  1:
 RMSU=  5.03D-04    CP:  9.65D-01  1.72D+00  7.69D-01
 E= -551.812209325706     Delta-E=       -0.008553234228 Rises=F Damp=F
 DIIS: error= 5.07D-03 at cycle   4 NSaved=   4.
 NSaved= 4 IEnMin= 4 EnMin= -551.812209325706     IErMin= 4 ErrMin= 5.07D-03
 ErrMax= 5.07D-03  0.00D+00 EMaxC= 1.00D-01 BMatC= 2.90D-03 BMatP= 1.26D-02
 IDIUse=3 WtCom= 9.49D-01 WtEn= 5.07D-02
 Coeff-Com: -0.120D+00 0.236D+00 0.416D+00 0.468D+00
 Coeff-En:   0.000D+00 0.000D+00 0.124D+00 0.876D+00
 Coeff:     -0.114D+00 0.224D+00 0.402D+00 0.489D+00
 Gap=     0.326 Goal=   None    Shift=    0.000
 RMSDP=2.93D-04 MaxDP=7.76D-03 DE=-8.55D-03 OVMax= 1.28D-02

 Cycle   5  Pass 1  IDiag  1:
 RMSU=  1.43D-04    CP:  9.63D-01  1.73D+00  8.45D-01  5.58D-01
 E= -551.814305113366     Delta-E=       -0.002095787661 Rises=F Damp=F
 DIIS: error= 6.08D-04 at cycle   5 NSaved=   5.
 NSaved= 5 IEnMin= 5 EnMin= -551.814305113366     IErMin= 5 ErrMin= 6.08D-04
 ErrMax= 6.08D-04  0.00D+00 EMaxC= 1.00D-01 BMatC= 5.43D-05 BMatP= 2.90D-03
 IDIUse=3 WtCom= 9.94D-01 WtEn= 6.08D-03
 Coeff-Com: -0.283D-01 0.517D-01 0.122D+00 0.202D+00 0.652D+00
 Coeff-En:   0.000D+00 0.000D+00 0.000D+00 0.000D+00 0.100D+01
 Coeff:     -0.281D-01 0.514D-01 0.121D+00 0.201D+00 0.654D+00
 Gap=     0.326 Goal=   None    Shift=    0.000
 RMSDP=4.96D-05 MaxDP=1.47D-03 DE=-2.10D-03 OVMax= 2.02D-03

 Cycle   6  Pass 1  IDiag  1:
 RMSU=  3.67D-05    CP:  9.63D-01  1.74D+00  8.50D-01  6.13D-01  9.56D-01
 E= -551.814352850157     Delta-E=       -0.000047736791 Rises=F Damp=F
 DIIS: error= 1.60D-04 at cycle   6 NSaved=   6.
 NSaved= 6 IEnMin= 6 EnMin= -551.814352850157     IErMin= 6 ErrMin= 1.60D-04
 ErrMax= 1.60D-04  0.00D+00 EMaxC= 1.00D-01 BMatC= 3.12D-06 BMatP= 5.43D-05
 IDIUse=3 WtCom= 9.98D-01 WtEn= 1.60D-03
 Coeff-Com:  0.142D-01-0.287D-01-0.390D-01-0.358D-01 0.140D+00 0.949D+00
 Coeff-En:   0.000D+00 0.000D+00 0.000D+00 0.000D+00 0.000D+00 0.100D+01
 Coeff:      0.141D-01-0.286D-01-0.389D-01-0.358D-01 0.140D+00 0.949D+00
 Gap=     0.326 Goal=   None    Shift=    0.000
 RMSDP=2.65D-05 MaxDP=4.69D-04 DE=-4.77D-05 OVMax= 1.49D-03

 Cycle   7  Pass 1  IDiag  1:
 RMSU=  1.36D-05    CP:  9.63D-01  1.74D+00  8.58D-01  6.21D-01  1.07D+00
                    CP:  1.15D+00
 E= -551.814359140578     Delta-E=       -0.000006290420 Rises=F Damp=F
 DIIS: error= 4.16D-05 at cycle   7 NSaved=   7.
 NSaved= 7 IEnMin= 7 EnMin= -551.814359140578     IErMin= 7 ErrMin= 4.16D-05
 ErrMax= 4.16D-05  0.00D+00 EMaxC= 1.00D-01 BMatC= 4.41D-07 BMatP= 3.12D-06
 IDIUse=1 WtCom= 1.00D+00 WtEn= 0.00D+00
 Coeff-Com:  0.713D-02-0.139D-01-0.222D-01-0.290D-01-0.179D-02 0.342D+00
 Coeff-Com:  0.718D+00
 Coeff:      0.713D-02-0.139D-01-0.222D-01-0.290D-01-0.179D-02 0.342D+00
 Coeff:      0.718D+00
 Gap=     0.326 Goal=   None    Shift=    0.000
 RMSDP=6.07D-06 MaxDP=1.37D-04 DE=-6.29D-06 OVMax= 3.54D-04

 Cycle   8  Pass 1  IDiag  1:
 RMSU=  3.91D-06    CP:  9.63D-01  1.74D+00  8.58D-01  6.22D-01  1.10D+00
                    CP:  1.22D+00  1.01D+00
 E= -551.814359725105     Delta-E=       -0.000000584527 Rises=F Damp=F
 DIIS: error= 1.97D-05 at cycle   8 NSaved=   8.
 NSaved= 8 IEnMin= 8 EnMin= -551.814359725105     IErMin= 8 ErrMin= 1.97D-05
 ErrMax= 1.97D-05  0.00D+00 EMaxC= 1.00D-01 BMatC= 2.71D-08 BMatP= 4.41D-07
 IDIUse=1 WtCom= 1.00D+00 WtEn= 0.00D+00
 Coeff-Com: -0.277D-03 0.643D-03 0.535D-03-0.184D-02-0.145D-01-0.349D-01
 Coeff-Com:  0.125D+00 0.925D+00
 Coeff:     -0.277D-03 0.643D-03 0.535D-03-0.184D-02-0.145D-01-0.349D-01
 Coeff:      0.125D+00 0.925D+00
 Gap=     0.326 Goal=   None    Shift=    0.000
 RMSDP=2.36D-06 MaxDP=5.43D-05 DE=-5.85D-07 OVMax= 1.66D-04

 Cycle   9  Pass 1  IDiag  1:
 RMSU=  1.41D-06    CP:  9.63D-01  1.74D+00  8.58D-01  6.21D-01  1.10D+00
                    CP:  1.23D+00  1.12D+00  1.16D+00
 E= -551.814359790589     Delta-E=       -0.000000065484 Rises=F Damp=F
 DIIS: error= 6.04D-06 at cycle   9 NSaved=   9.
 NSaved= 9 IEnMin= 9 EnMin= -551.814359790589     IErMin= 9 ErrMin= 6.04D-06
 ErrMax= 6.04D-06  0.00D+00 EMaxC= 1.00D-01 BMatC= 6.31D-09 BMatP= 2.71D-08
 IDIUse=1 WtCom= 1.00D+00 WtEn= 0.00D+00
 Coeff-Com: -0.103D-02 0.204D-02 0.314D-02 0.294D-02-0.467D-02-0.528D-01
 Coeff-Com: -0.457D-01 0.353D+00 0.743D+00
 Coeff:     -0.103D-02 0.204D-02 0.314D-02 0.294D-02-0.467D-02-0.528D-01
 Coeff:     -0.457D-01 0.353D+00 0.743D+00
 Gap=     0.326 Goal=   None    Shift=    0.000
 RMSDP=8.77D-07 MaxDP=1.71D-05 DE=-6.55D-08 OVMax= 7.58D-05

 Cycle  10  Pass 1  IDiag  1:
 RMSU=  5.89D-07    CP:  9.63D-01  1.74D+00  8.58D-01  6.21D-01  1.10D+00
                    CP:  1.24D+00  1.14D+00  1.28D+00  1.05D+00
 E= -551.814359803706     Delta-E=       -0.000000013118 Rises=F Damp=F
 DIIS: error= 3.57D-06 at cycle  10 NSaved=  10.
 NSaved=10 IEnMin=10 EnMin= -551.814359803706     IErMin=10 ErrMin= 3.57D-06
 ErrMax= 3.57D-06  0.00D+00 EMaxC= 1.00D-01 BMatC= 5.61D-10 BMatP= 6.31D-09
 IDIUse=1 WtCom= 1.00D+00 WtEn= 0.00D+00
 Coeff-Com: -0.869D-04 0.162D-03 0.289D-03 0.403D-03 0.113D-02-0.213D-02
 Coeff-Com: -0.260D-01-0.803D-01 0.598D-01 0.105D+01
 Coeff:     -0.869D-04 0.162D-03 0.289D-03 0.403D-03 0.113D-02-0.213D-02
 Coeff:     -0.260D-01-0.803D-01 0.598D-01 0.105D+01
 Gap=     0.326 Goal=   None    Shift=    0.000
 RMSDP=4.67D-07 MaxDP=8.29D-06 DE=-1.31D-08 OVMax= 4.50D-05

 Cycle  11  Pass 1  IDiag  1:
 RMSU=  2.03D-07    CP:  9.63D-01  1.74D+00  8.58D-01  6.20D-01  1.10D+00
                    CP:  1.24D+00  1.15D+00  1.32D+00  1.25D+00  1.33D+00
 E= -551.814359806737     Delta-E=       -0.000000003031 Rises=F Damp=F
 DIIS: error= 1.38D-06 at cycle  11 NSaved=  11.
 NSaved=11 IEnMin=11 EnMin= -551.814359806737     IErMin=11 ErrMin= 1.38D-06
 ErrMax= 1.38D-06  0.00D+00 EMaxC= 1.00D-01 BMatC= 8.46D-11 BMatP= 5.61D-10
 IDIUse=1 WtCom= 1.00D+00 WtEn= 0.00D+00
 Coeff-Com:  0.127D-03-0.253D-03-0.386D-03-0.354D-03 0.771D-03 0.654D-02
 Coeff-Com:  0.357D-02-0.465D-01-0.107D+00 0.774D-01 0.107D+01
 Coeff:      0.127D-03-0.253D-03-0.386D-03-0.354D-03 0.771D-03 0.654D-02
 Coeff:      0.357D-02-0.465D-01-0.107D+00 0.774D-01 0.107D+01
 Gap=     0.326 Goal=   None    Shift=    0.000
 RMSDP=1.96D-07 MaxDP=4.10D-06 DE=-3.03D-09 OVMax= 1.98D-05

 Cycle  12  Pass 1  IDiag  1:
 RMSU=  8.80D-08    CP:  9.63D-01  1.74D+00  8.58D-01  6.20D-01  1.10D+00
                    CP:  1.24D+00  1.15D+00  1.33D+00  1.30D+00  1.54D+00
                    CP:  1.39D+00
 E= -551.814359807244     Delta-E=       -0.000000000506 Rises=F Damp=F
 DIIS: error= 4.56D-07 at cycle  12 NSaved=  12.
 NSaved=12 IEnMin=12 EnMin= -551.814359807244     IErMin=12 ErrMin= 4.56D-07
 ErrMax= 4.56D-07  0.00D+00 EMaxC= 1.00D-01 BMatC= 4.06D-11 BMatP= 8.46D-11
 IDIUse=1 WtCom= 1.00D+00 WtEn= 0.00D+00
 Coeff-Com:  0.808D-04-0.159D-03-0.251D-03-0.243D-03 0.218D-03 0.369D-02
 Coeff-Com:  0.671D-02-0.745D-02-0.716D-01-0.165D+00 0.557D+00 0.677D+00
 Coeff:      0.808D-04-0.159D-03-0.251D-03-0.243D-03 0.218D-03 0.369D-02
 Coeff:      0.671D-02-0.745D-02-0.716D-01-0.165D+00 0.557D+00 0.677D+00
 Gap=     0.326 Goal=   None    Shift=    0.000
 RMSDP=7.54D-08 MaxDP=1.39D-06 DE=-5.06D-10 OVMax= 7.21D-06

 Cycle  13  Pass 1  IDiag  1:
 RMSU=  3.79D-08    CP:  9.63D-01  1.74D+00  8.58D-01  6.20D-01  1.10D+00
                    CP:  1.24D+00  1.15D+00  1.34D+00  1.32D+00  1.61D+00
                    CP:  1.60D+00  9.83D-01
 E= -551.814359807325     Delta-E=       -0.000000000081 Rises=F Damp=F
 DIIS: error= 1.22D-07 at cycle  13 NSaved=  13.
 NSaved=13 IEnMin=13 EnMin= -551.814359807325     IErMin=13 ErrMin= 1.22D-07
 ErrMax= 1.22D-07  0.00D+00 EMaxC= 1.00D-01 BMatC= 3.21D-12 BMatP= 4.06D-11
 IDIUse=1 WtCom= 1.00D+00 WtEn= 0.00D+00
 Coeff-Com:  0.462D-05-0.853D-05-0.177D-04-0.123D-04-0.417D-04 0.111D-03
 Coeff-Com:  0.164D-02 0.576D-02-0.765D-02-0.655D-01 0.128D-01 0.206D+00
 Coeff-Com:  0.847D+00
 Coeff:      0.462D-05-0.853D-05-0.177D-04-0.123D-04-0.417D-04 0.111D-03
 Coeff:      0.164D-02 0.576D-02-0.765D-02-0.655D-01 0.128D-01 0.206D+00
 Coeff:      0.847D+00
 Gap=     0.326 Goal=   None    Shift=    0.000
 RMSDP=2.61D-08 MaxDP=5.03D-07 DE=-8.12D-11 OVMax= 2.33D-06

 Cycle  14  Pass 1  IDiag  1:
 RMSU=  1.26D-08    CP:  9.63D-01  1.74D+00  8.58D-01  6.20D-01  1.10D+00
                    CP:  1.24D+00  1.15D+00  1.34D+00  1.32D+00  1.63D+00
                    CP:  1.67D+00  1.14D+00  1.13D+00
 E= -551.814359807334     Delta-E=       -0.000000000010 Rises=F Damp=F
 DIIS: error= 4.35D-08 at cycle  14 NSaved=  14.
 NSaved=14 IEnMin=14 EnMin= -551.814359807334     IErMin=14 ErrMin= 4.35D-08
 ErrMax= 4.35D-08  0.00D+00 EMaxC= 1.00D-01 BMatC= 6.40D-13 BMatP= 3.21D-12
 IDIUse=1 WtCom= 1.00D+00 WtEn= 0.00D+00
 Coeff-Com: -0.117D-04 0.231D-04 0.341D-04 0.374D-04-0.574D-04-0.561D-03
 Coeff-Com: -0.355D-03 0.404D-02 0.833D-02-0.279D-02-0.826D-01-0.138D-01
 Coeff-Com:  0.378D+00 0.710D+00
 Coeff:     -0.117D-04 0.231D-04 0.341D-04 0.374D-04-0.574D-04-0.561D-03
 Coeff:     -0.355D-03 0.404D-02 0.833D-02-0.279D-02-0.826D-01-0.138D-01
 Coeff:      0.378D+00 0.710D+00
 Gap=     0.326 Goal=   None    Shift=    0.000
 RMSDP=8.15D-09 MaxDP=1.90D-07 DE=-9.55D-12 OVMax= 4.37D-07

 Error on total polarization charges =  0.00673
 SCF Done:  E(RwB97XD) =  -551.814359807     A.U. after   14 cycles
            NFock= 14  Conv=0.81D-08     -V/T= 2.0089
 KE= 5.469267104659D+02 PE=-2.607276313661D+03 EE= 8.471514904329D+02
 Leave Link  502 at Wed Feb 28 20:58:52 2024, MaxMem=  2147483648 cpu:             376.1 elap:              13.9
 (Enter /software/gaussian-16RevA.03-el7-x86_64/g16/l508.exe)
 QCSCF skips out because SCF is already converged.
 Leave Link  508 at Wed Feb 28 20:58:53 2024, MaxMem=  2147483648 cpu:               0.6 elap:               0.2
 (Enter /software/gaussian-16RevA.03-el7-x86_64/g16/l801.exe)
 DoSCS=F DFT=T ScalE2(SS,OS)=  1.000000  1.000000
 Range of M.O.s used for correlation:     1   182
 NBasis=   182 NAE=    42 NBE=    42 NFC=     0 NFV=     0
 NROrb=    182 NOA=    42 NOB=    42 NVA=   140 NVB=   140

 **** Warning!!: The largest alpha MO coefficient is  0.16003762D+02

 Leave Link  801 at Wed Feb 28 20:58:54 2024, MaxMem=  2147483648 cpu:               1.4 elap:               0.2
 (Enter /software/gaussian-16RevA.03-el7-x86_64/g16/l1101.exe)
 Using compressed storage, NAtomX=    19.
 Will process     20 centers per pass.
   1 Symmetry operations used in ECPInt.
 ECPInt:  NShTT=    3741 NPrTT=   15055 LenC2=    3667 LenP2D=   11057.
 LDataN:  DoStor=T MaxTD1= 5 Len=  102
 R6Disp: Adding Grimme-D2 dispersion energy 1st derivatives to the gradient.
 Leave Link 1101 at Wed Feb 28 20:58:56 2024, MaxMem=  2147483648 cpu:              11.8 elap:               0.7
 (Enter /software/gaussian-16RevA.03-el7-x86_64/g16/l1102.exe)
 Symmetrizing basis deriv contribution to polar:
 IMax=3 JMax=2 DiffMx= 0.00D+00
 Leave Link 1102 at Wed Feb 28 20:58:57 2024, MaxMem=  2147483648 cpu:               3.5 elap:               0.4
 (Enter /software/gaussian-16RevA.03-el7-x86_64/g16/l1110.exe)
 Forming Gx(P) for the SCF density, NAtomX=    19.
 Integral derivatives from FoFJK, PRISM(SPDF).
 Do as many integral derivatives as possible in FoFJK.
 G2DrvN: MDV=    2147482144.
 G2DrvN: will do    20 centers at a time, making    1 passes.
 Calling FoFCou, ICntrl=  3107 FMM=F I1Cent=   0 AccDes= 0.00D+00.
 FoFJK:  IHMeth= 1 ICntrl=    3107 DoSepK=T KAlg= 0 I1Cent=           0 FoldK=F
 IRaf=         1 NMat=       1 IRICut=       1 DoRegI=T DoRafI=F ISym2E= 0 IDoP0=0 IntGTp=1.
 FoFCou: FMM=F IPFlag=           0 FMFlag=      100000 FMFlg1=           0
         NFxFlg=           0 DoJE=F BraDBF=F KetDBF=F FulRan=T
         wScrn=  0.000000 ICntrl=      3507 IOpCl=  0 I1Cent=           0 NGrid=           0
         NMat0=    1 NMatS0=      1 NMatT0=    0 NMatD0=    1 NMtDS0=    0 NMtDT0=    0
 Symmetry not used in FoFCou.
 NEqPCM:  Using equilibrium solvation (IEInf=0, Eps=   7.4257, EpsInf=   1.9740)
 G2PCM: DoFxE=T DoFxN=T DoGrad=T DoDP/DQ/DG/TGxP=FFFF NFrqRd=   0 IEInf=0 SqF1=F DoCFld=F IF1Alg=4.
 GePol: Maximum number of non-zero 1st derivatives   =     208
 End of G2Drv F.D. properties file   721 does not exist.
 End of G2Drv F.D. properties file   722 does not exist.
 End of G2Drv F.D. properties file   788 does not exist.
 Leave Link 1110 at Wed Feb 28 20:59:07 2024, MaxMem=  2147483648 cpu:             279.4 elap:              10.1
 (Enter /software/gaussian-16RevA.03-el7-x86_64/g16/l1002.exe)
 Minotr:  Closed shell wavefunction.
          IDoAtm=1111111111111111111
 NEqPCM:  Using equilibrium solvation (IEInf=0, Eps=   7.4257, EpsInf=   1.9740)
          Direct CPHF calculation.
          Differentiating once with respect to electric field.
                with respect to dipole field.
          Differentiating once with respect to nuclear coordinates.
          Requested convergence is 1.0D-08 RMS, and 1.0D-07 maximum.
          Secondary convergence is 1.0D-12 RMS, and 1.0D-12 maximum.
          NewPWx=T KeepS1=F KeepF1=F KeepIn=T MapXYZ=F SortEE=F KeepMc=T.
         5698 words used for storage of precomputed grid.
 Keep R1 ints in memory in canonical form, NReq=305852463.
 FoFCou: FMM=F IPFlag=           0 FMFlag=           0 FMFlg1=           0
         NFxFlg=           0 DoJE=F BraDBF=F KetDBF=F FulRan=T
         wScrn=  0.000000 ICntrl=       600 IOpCl=  0 I1Cent=           0 NGrid=           0
         NMat0=    1 NMatS0=  16653 NMatT0=    0 NMatD0=    1 NMtDS0=    0 NMtDT0=    0
 Symmetry not used in FoFCou.
 Two-electron integral symmetry not used.
          MDV=    2147483648 using IRadAn=       1.
          Solving linear equations simultaneously, MaxMat=       0.
          There are    60 degrees of freedom in the 1st order CPHF.  IDoFFX=6 NUNeed=     3.
     57 vectors produced by pass  0 Test12= 9.80D-15 1.67D-09 XBig12= 7.10D+01 4.93D+00.
 AX will form    57 AO Fock derivatives at one time.
     57 vectors produced by pass  1 Test12= 9.80D-15 1.67D-09 XBig12= 8.69D+00 4.96D-01.
     57 vectors produced by pass  2 Test12= 9.80D-15 1.67D-09 XBig12= 2.07D-01 1.20D-01.
     57 vectors produced by pass  3 Test12= 9.80D-15 1.67D-09 XBig12= 2.71D-03 1.25D-02.
     57 vectors produced by pass  4 Test12= 9.80D-15 1.67D-09 XBig12= 1.87D-05 6.19D-04.
     57 vectors produced by pass  5 Test12= 9.80D-15 1.67D-09 XBig12= 9.58D-08 5.13D-05.
     52 vectors produced by pass  6 Test12= 9.80D-15 1.67D-09 XBig12= 3.78D-10 2.59D-06.
     15 vectors produced by pass  7 Test12= 9.80D-15 1.67D-09 XBig12= 1.34D-12 1.65D-07.
      3 vectors produced by pass  8 Test12= 9.80D-15 1.67D-09 XBig12= 5.76D-15 1.15D-08.
 InvSVY:  IOpt=1 It=  1 EMax= 3.55D-15
 Solved reduced A of dimension   412 with    60 vectors.
 FullF1:  Do perturbations      1 to       3.
 Isotropic polarizability for W=    0.000000      123.55 Bohr**3.
 End of Minotr F.D. properties file   721 does not exist.
 End of Minotr F.D. properties file   722 does not exist.
 End of Minotr F.D. properties file   788 does not exist.
 Leave Link 1002 at Wed Feb 28 20:59:23 2024, MaxMem=  2147483648 cpu:             401.0 elap:              14.5
 (Enter /software/gaussian-16RevA.03-el7-x86_64/g16/l601.exe)
 Copying SCF densities to generalized density rwf, IOpCl= 0 IROHF=0.

 **********************************************************************

            Population analysis using the SCF density.

 **********************************************************************

 Alpha  occ. eigenvalues --  -19.26145 -19.26075 -14.50878 -10.42877 -10.42839
 Alpha  occ. eigenvalues --  -10.33396 -10.32536 -10.32527 -10.32429 -10.32396
 Alpha  occ. eigenvalues --  -10.32188 -10.32144  -1.17820  -1.15022  -1.07848
 Alpha  occ. eigenvalues --   -0.98351  -0.90408  -0.86981  -0.81937  -0.77650
 Alpha  occ. eigenvalues --   -0.72681  -0.72075  -0.66622  -0.61547  -0.59946
 Alpha  occ. eigenvalues --   -0.59649  -0.57639  -0.54654  -0.54598  -0.53494
 Alpha  occ. eigenvalues --   -0.52720  -0.51612  -0.50061  -0.49749  -0.46956
 Alpha  occ. eigenvalues --   -0.46764  -0.45837  -0.38035  -0.37393  -0.36493
 Alpha  occ. eigenvalues --   -0.35655  -0.34897
 Alpha virt. eigenvalues --   -0.02273   0.02541   0.09913   0.15076   0.15330
 Alpha virt. eigenvalues --    0.15972   0.18645   0.20803   0.21463   0.22664
 Alpha virt. eigenvalues --    0.22944   0.23941   0.24956   0.26470   0.29680
 Alpha virt. eigenvalues --    0.31577   0.32339   0.35017   0.36725   0.38189
 Alpha virt. eigenvalues --    0.40405   0.41307   0.42057   0.44899   0.46332
 Alpha virt. eigenvalues --    0.48080   0.50913   0.51409   0.53520   0.53746
 Alpha virt. eigenvalues --    0.54322   0.55524   0.55799   0.57557   0.59201
 Alpha virt. eigenvalues --    0.59865   0.64903   0.66803   0.68001   0.71371
 Alpha virt. eigenvalues --    0.71534   0.71765   0.72198   0.73907   0.75040
 Alpha virt. eigenvalues --    0.75602   0.75849   0.77023   0.77642   0.77899
 Alpha virt. eigenvalues --    0.78590   0.80543   0.82204   0.82467   0.82989
 Alpha virt. eigenvalues --    0.84293   0.86445   0.87259   0.90688   0.94066
 Alpha virt. eigenvalues --    0.97166   0.97509   1.01670   1.07008   1.12019
 Alpha virt. eigenvalues --    1.12636   1.14098   1.15995   1.19406   1.21537
 Alpha virt. eigenvalues --    1.21709   1.25096   1.29967   1.32551   1.33856
 Alpha virt. eigenvalues --    1.36507   1.40358   1.41550   1.48061   1.50413
 Alpha virt. eigenvalues --    1.51841   1.51923   1.54284   1.54594   1.54841
 Alpha virt. eigenvalues --    1.56548   1.69254   1.70783   1.77587   1.84141
 Alpha virt. eigenvalues --    1.85236   1.86772   1.88539   1.91721   1.93861
 Alpha virt. eigenvalues --    1.98548   2.01892   2.02300   2.05251   2.06204
 Alpha virt. eigenvalues --    2.09055   2.09522   2.16687   2.17637   2.19438
 Alpha virt. eigenvalues --    2.22847   2.22930   2.26662   2.30203   2.31915
 Alpha virt. eigenvalues --    2.34966   2.35868   2.37412   2.45011   2.51332
 Alpha virt. eigenvalues --    2.52049   2.57415   2.59787   2.60049   2.67058
 Alpha virt. eigenvalues --    2.71702   2.74347   2.76850   2.77550   2.79146
 Alpha virt. eigenvalues --    2.81802   2.84984   2.86202   2.89921   2.90972
 Alpha virt. eigenvalues --    2.97357   3.23280   3.23387   3.26986   3.31377
 Alpha virt. eigenvalues --    3.44426   3.47661   3.68739   3.72893   3.76879
          Condensed to atoms (all electrons):
               1          2          3          4          5          6
     1  C    4.780760   0.250557  -0.022469   0.006963   0.012617  -0.000154
     2  N    0.250557   6.958415   0.322314  -0.084623  -0.147313   0.008068
     3  C   -0.022469   0.322314   4.640132   0.800721   0.170988  -0.080360
     4  O    0.006963  -0.084623   0.800721   7.616748  -0.122710   0.010361
     5  C    0.012617  -0.147313   0.170988  -0.122710   5.650223   0.304630
     6  C   -0.000154   0.008068  -0.080360   0.010361   0.304630   5.260542
     7  C    0.000005  -0.000021   0.015853   0.000687   0.102398   0.250538
     8  C    0.000004   0.000007  -0.001458  -0.000019  -0.148893   0.095554
     9  C   -0.000077   0.007767   0.017898  -0.000083   0.023556  -0.120672
    10  C    0.012416  -0.158945  -0.032829   0.002824   0.243123   0.023035
    11  C   -0.029462   0.335703  -0.092136  -0.000687  -0.045624   0.017655
    12  O   -0.003127  -0.081911  -0.000880  -0.000010   0.003198  -0.000065
    13  H    0.398075  -0.027120  -0.002917   0.002105   0.001201   0.000006
    14  H    0.398082  -0.027124  -0.002916   0.002105   0.001200   0.000006
    15  H    0.384282  -0.023686   0.004056   0.000153  -0.000625   0.000014
    16  H   -0.000024   0.000556  -0.008599   0.005790  -0.070400   0.444446
    17  H   -0.000000   0.000001  -0.000260  -0.000003   0.012204  -0.064354
    18  H   -0.000000   0.000001   0.000031  -0.000000  -0.001367   0.010585
    19  H   -0.000010   0.000537  -0.000272   0.000002   0.013548  -0.001748
               7          8          9         10         11         12
     1  C    0.000005   0.000004  -0.000077   0.012416  -0.029462  -0.003127
     2  N   -0.000021   0.000007   0.007767  -0.158945   0.335703  -0.081911
     3  C    0.015853  -0.001458   0.017898  -0.032829  -0.092136  -0.000880
     4  O    0.000687  -0.000019  -0.000083   0.002824  -0.000687  -0.000010
     5  C    0.102398  -0.148893   0.023556   0.243123  -0.045624   0.003198
     6  C    0.250538   0.095554  -0.120672   0.023035   0.017655  -0.000065
     7  C    5.174000   0.271815   0.095834  -0.149025  -0.001416  -0.000020
     8  C    0.271815   5.173962   0.250761   0.101882   0.015722   0.000715
     9  C    0.095834   0.250761   5.259210   0.305322  -0.080044   0.010344
    10  C   -0.149025   0.101882   0.305322   5.698446   0.139737  -0.127994
    11  C   -0.001416   0.015722  -0.080044   0.139737   4.663850   0.804484
    12  O   -0.000020   0.000715   0.010344  -0.127994   0.804484   7.612844
    13  H   -0.000001   0.000000   0.000009  -0.000666   0.002062   0.000067
    14  H   -0.000001   0.000000   0.000009  -0.000665   0.002061   0.000067
    15  H    0.000000  -0.000002  -0.000018   0.004180  -0.001834   0.013071
    16  H   -0.063888   0.010460  -0.001813   0.013467  -0.000190   0.000002
    17  H    0.437940  -0.061356   0.010543  -0.001353   0.000033  -0.000000
    18  H   -0.061414   0.438087  -0.064475   0.012247  -0.000255  -0.000003
    19  H    0.010426  -0.063626   0.443752  -0.070563  -0.007817   0.005805
              13         14         15         16         17         18
     1  C    0.398075   0.398082   0.384282  -0.000024  -0.000000  -0.000000
     2  N   -0.027120  -0.027124  -0.023686   0.000556   0.000001   0.000001
     3  C   -0.002917  -0.002916   0.004056  -0.008599  -0.000260   0.000031
     4  O    0.002105   0.002105   0.000153   0.005790  -0.000003  -0.000000
     5  C    0.001201   0.001200  -0.000625  -0.070400   0.012204  -0.001367
     6  C    0.000006   0.000006   0.000014   0.444446  -0.064354   0.010585
     7  C   -0.000001  -0.000001   0.000000  -0.063888   0.437940  -0.061414
     8  C    0.000000   0.000000  -0.000002   0.010460  -0.061356   0.438087
     9  C    0.000009   0.000009  -0.000018  -0.001813   0.010543  -0.064475
    10  C   -0.000666  -0.000665   0.004180   0.013467  -0.001353   0.012247
    11  C    0.002062   0.002061  -0.001834  -0.000190   0.000033  -0.000255
    12  O    0.000067   0.000067   0.013071   0.000002  -0.000000  -0.000003
    13  H    0.514541  -0.021871  -0.017222  -0.000001   0.000000   0.000000
    14  H   -0.021871   0.514545  -0.017218  -0.000001   0.000000   0.000000
    15  H   -0.017222  -0.017218   0.490468  -0.000001   0.000000  -0.000000
    16  H   -0.000001  -0.000001  -0.000001   0.564377  -0.007853  -0.000108
    17  H    0.000000   0.000000   0.000000  -0.007853   0.557532  -0.008610
    18  H    0.000000   0.000000  -0.000000  -0.000108  -0.008610   0.557465
    19  H   -0.000000  -0.000000  -0.000011   0.000020  -0.000107  -0.007884
              19
     1  C   -0.000010
     2  N    0.000537
     3  C   -0.000272
     4  O    0.000002
     5  C    0.013548
     6  C   -0.001748
     7  C    0.010426
     8  C   -0.063626
     9  C    0.443752
    10  C   -0.070563
    11  C   -0.007817
    12  O    0.005805
    13  H   -0.000000
    14  H   -0.000000
    15  H   -0.000011
    16  H    0.000020
    17  H   -0.000107
    18  H   -0.007884
    19  H    0.563789
 Mulliken charges:
               1
     1  C   -0.188439
     2  N   -0.333184
     3  C    0.273103
     4  O   -0.240326
     5  C   -0.001954
     6  C   -0.158087
     7  C   -0.083712
     8  C   -0.083616
     9  C   -0.157824
    10  C   -0.014640
    11  C    0.278157
    12  O   -0.236587
    13  H    0.151733
    14  H    0.151723
    15  H    0.164390
    16  H    0.113760
    17  H    0.125644
    18  H    0.125699
    19  H    0.114158
 Sum of Mulliken charges =  -0.00000
 Mulliken charges with hydrogens summed into heavy atoms:
               1
     1  C    0.279407
     2  N   -0.333184
     3  C    0.273103
     4  O   -0.240326
     5  C   -0.001954
     6  C   -0.044327
     7  C    0.041932
     8  C    0.042083
     9  C   -0.043665
    10  C   -0.014640
    11  C    0.278157
    12  O   -0.236587
 APT charges:
               1
     1  C    0.338523
     2  N   -1.165250
     3  C    1.504456
     4  O   -0.982453
     5  C   -0.232270
     6  C   -0.018711
     7  C   -0.025335
     8  C   -0.023387
     9  C   -0.017557
    10  C   -0.227276
    11  C    1.514188
    12  O   -0.992871
    13  H   -0.001853
    14  H   -0.001825
    15  H    0.062875
    16  H    0.078943
    17  H    0.055563
    18  H    0.055361
    19  H    0.078878
 Sum of APT charges =  -0.00000
 APT charges with hydrogens summed into heavy atoms:
               1
     1  C    0.397721
     2  N   -1.165250
     3  C    1.504456
     4  O   -0.982453
     5  C   -0.232270
     6  C    0.060231
     7  C    0.030228
     8  C    0.031974
     9  C    0.061321
    10  C   -0.227276
    11  C    1.514188
    12  O   -0.992871
 Electronic spatial extent (au):  <R**2>=           1837.8188
 Charge=             -0.0000 electrons
 Dipole moment (field-independent basis, Debye):
    X=              2.1857    Y=             -0.2016    Z=             -0.1568  Tot=              2.2005
 Quadrupole moment (field-independent basis, Debye-Ang):
   XX=            -53.1336   YY=            -78.3680   ZZ=            -69.3373
   XY=             -2.4609   XZ=             -1.4114   YZ=             -2.7030
 Traceless Quadrupole moment (field-independent basis, Debye-Ang):
   XX=             13.8127   YY=            -11.4217   ZZ=             -2.3910
   XY=             -2.4609   XZ=             -1.4114   YZ=             -2.7030
 Octapole moment (field-independent basis, Debye-Ang**2):
  XXX=              8.1448  YYY=             -9.5250  ZZZ=              0.1984  XYY=             32.8139
  XXY=              7.1676  XXZ=              0.9828  XZZ=             -4.6774  YZZ=             -2.0339
  YYZ=             -4.0894  XYZ=             11.4340
 Hexadecapole moment (field-independent basis, Debye-Ang**3):
 XXXX=          -1323.6534 YYYY=           -766.6620 ZZZZ=           -132.0817 XXXY=              5.8958
 XXXZ=             23.5625 YYYX=             22.6259 YYYZ=           -109.5509 ZZZX=             45.2306
 ZZZY=            -94.5087 XXYY=           -378.4204 XXZZ=           -287.8644 YYZZ=           -144.4150
 XXYZ=            -27.4568 YYXZ=             10.3941 ZZXY=             11.1954
 N-N= 6.613837529548D+02 E-N=-2.607276313597D+03  KE= 5.469267104659D+02
  Exact polarizability: 161.350   0.999 144.310  -4.392  24.985  65.003
 Approx polarizability: 132.800   3.558 146.542  -2.265  24.807  67.337
 No NMR shielding tensors so no spin-rotation constants.
 Leave Link  601 at Wed Feb 28 20:59:24 2024, MaxMem=  2147483648 cpu:               6.9 elap:               0.4
 (Enter /software/gaussian-16RevA.03-el7-x86_64/g16/l701.exe)
 ... and contract with generalized density number  0.
 Compute integral second derivatives.
 R6Disp: Adding Grimme-D2 dispersion energy 2nd derivatives to the Hessian.
   1 Symmetry operations used in ECPInt.
 ECPInt:  NShTT=    3741 NPrTT=   15055 LenC2=    3667 LenP2D=   11057.
 LDataN:  DoStor=T MaxTD1= 6 Len=  172
 D2PCM: PCM CHGder 2nd derivatives, FixD1E=F FixD2E=F DoIter=F DoCFld=F I1PDM=0
 GePol: Maximum number of non-zero 2nd derivatives   =     208
 Leave Link  701 at Wed Feb 28 20:59:27 2024, MaxMem=  2147483648 cpu:              69.7 elap:               2.8
 (Enter /software/gaussian-16RevA.03-el7-x86_64/g16/l702.exe)
 L702 exits ... SP integral derivatives will be done elsewhere.
 Leave Link  702 at Wed Feb 28 20:59:28 2024, MaxMem=  2147483648 cpu:               0.9 elap:               0.1
 (Enter /software/gaussian-16RevA.03-el7-x86_64/g16/l703.exe)
 Integral derivatives from FoFJK, PRISM(SPDF).
 Compute integral second derivatives, UseDBF=F ICtDFT=           0.
 Calling FoFJK, ICntrl=    100127 FMM=F ISym2X=0 I1Cent= 0 IOpClX= 0 NMat=1 NMatS=1 NMatT=0.
 FoFJK:  IHMeth= 1 ICntrl=  100127 DoSepK=T KAlg= 0 I1Cent=           0 FoldK=F
 IRaf=         1 NMat=       1 IRICut=       1 DoRegI=T DoRafI=F ISym2E= 0 IDoP0=0 IntGTp=1.
 FoFCou: FMM=F IPFlag=           0 FMFlag=      100000 FMFlg1=         800
         NFxFlg=           0 DoJE=F BraDBF=F KetDBF=F FulRan=T
         wScrn=  0.000000 ICntrl=    100527 IOpCl=  0 I1Cent=           0 NGrid=           0
         NMat0=    1 NMatS0=      1 NMatT0=    0 NMatD0=    1 NMtDS0=    0 NMtDT0=    0
 Symmetry not used in FoFCou.
 Leave Link  703 at Wed Feb 28 20:59:47 2024, MaxMem=  2147483648 cpu:             514.6 elap:              18.5
 (Enter /software/gaussian-16RevA.03-el7-x86_64/g16/l716.exe)
 Dipole        = 8.59911685D-01-7.93220575D-02-6.16879795D-02
 Polarizability= 1.61349964D+02 9.99457192D-01 1.44310427D+02
                -4.39228657D+00 2.49845769D+01 6.50025881D+01
 -------------------------------------------------------------------
 Center     Atomic                   Forces (Hartrees/Bohr)
 Number     Number              X              Y              Z
 -------------------------------------------------------------------
      1        6          -0.001286616   -0.008687852   -0.002452333
      2        7          -0.030776097    0.007221779    0.003476848
      3        6           0.006730046   -0.038957830   -0.011556063
      4        8          -0.011507121    0.015687895    0.005060569
      5        6           0.015966747    0.004804360    0.000661015
      6        6           0.004314201    0.001746446    0.000304176
      7        6          -0.001013821    0.009959676    0.002925351
      8        6          -0.003099082   -0.009605002   -0.002635626
      9        6           0.003810639   -0.002399648   -0.000865971
     10        6           0.014797044   -0.007466657   -0.002841671
     11        6           0.015447018    0.037853796    0.010253702
     12        8          -0.014391772   -0.012994564   -0.003104874
     13        1          -0.004355348    0.000695219   -0.004108015
     14        1          -0.003971656   -0.001709842    0.004187782
     15        1           0.003290915    0.004367047    0.001119190
     16        1          -0.000394020   -0.005122412   -0.001457009
     17        1           0.002743739   -0.001400731   -0.000532086
     18        1           0.002986061    0.000900932    0.000127613
     19        1           0.000709124    0.005107391    0.001437401
 -------------------------------------------------------------------
 Cartesian Forces:  Max     0.038957830 RMS     0.010562707
 FormGI is forming the generalized inverse of G from B-inverse, IUseBI=4.
 Leave Link  716 at Wed Feb 28 20:59:48 2024, MaxMem=  2147483648 cpu:               3.2 elap:               0.2
 (Enter /software/gaussian-16RevA.03-el7-x86_64/g16/l103.exe)

 GradGradGradGradGradGradGradGradGradGradGradGradGradGradGradGradGradGrad
 Berny optimization.
 Red2BG is reusing G-inverse.
 Internal  Forces:  Max     0.023780975 RMS     0.006503646
 Step   1 in ReCalcFC=50 IGetFC= 4 recover analytic Hessian.
 Search for a local minimum.
 Step number   1 out of a maximum of  114
 All quantities printed in internal units (Hartrees-Bohrs-Radians)
 RMS Force = .65036D-02 SwitMx=.10000D-02 MixMth= 1
 Mixed Optimization -- RFO/linear search
 Second derivative matrix not updated -- analytic derivatives used.
 ITU=  0
     Eigenvalues ---   -0.00001   0.00615   0.01011   0.01487   0.01593
     Eigenvalues ---    0.01799   0.01863   0.02150   0.02428   0.02713
     Eigenvalues ---    0.03028   0.03197   0.04332   0.04961   0.06069
     Eigenvalues ---    0.06164   0.10714   0.10771   0.12098   0.12459
     Eigenvalues ---    0.13491   0.14784   0.16716   0.18316   0.18738
     Eigenvalues ---    0.19208   0.19639   0.20587   0.24247   0.24446
     Eigenvalues ---    0.25571   0.28357   0.30277   0.35518   0.35870
     Eigenvalues ---    0.36069   0.36801   0.37396   0.37488   0.38124
     Eigenvalues ---    0.38150   0.38817   0.39237   0.41393   0.43751
     Eigenvalues ---    0.44603   0.49739   0.51106   0.53956   0.85999
     Eigenvalues ---    0.87503
 Eigenvalue     1 is  -1.42D-05 should be greater than     0.000000 Eigenvector:
                          D6        D4        D2        D5        D3
   1                   -0.42083  -0.41803  -0.41788  -0.39827  -0.39548
                          D1        D12       D7        D11       D8
   1                   -0.39533   0.02211  -0.01962   0.01807  -0.01790
 RFO step:  Lambda=-1.21968189D-02 EMin=-1.42374692D-05
 Linear search not attempted -- first point.
 Iteration  1 RMS(Cart)=  0.03408171 RMS(Int)=  0.00092100
 Iteration  2 RMS(Cart)=  0.00089089 RMS(Int)=  0.00014445
 Iteration  3 RMS(Cart)=  0.00000036 RMS(Int)=  0.00014445
 ITry= 1 IFail=0 DXMaxC= 1.68D-01 DCOld= 1.00D+10 DXMaxT= 3.00D-01 DXLimC= 3.00D+00 Rises=F
 Variable       Old X    -DE/DX   Delta X   Delta X   Delta X     New X
                                 (Linear)    (Quad)   (Total)
    R1        2.72405   0.00580   0.00000   0.00537   0.00537   2.72942
    R2        2.06747   0.00524   0.00000   0.01362   0.01362   2.08109
    R3        2.06747   0.00524   0.00000   0.01359   0.01359   2.08106
    R4        2.06489   0.00343   0.00000   0.01113   0.01113   2.07601
    R5        2.58543   0.01914   0.00000   0.04311   0.04314   2.62858
    R6        2.58406   0.02061   0.00000   0.04743   0.04747   2.63153
    R7        2.29794  -0.01078   0.00000  -0.01988  -0.01988   2.27806
    R8        2.76250   0.02378   0.00000   0.05446   0.05444   2.81694
    R9        2.60991   0.00514   0.00000   0.00807   0.00807   2.61798
   R10        2.61441   0.00893   0.00000   0.01689   0.01685   2.63126
   R11        2.64309   0.00152   0.00000   0.00428   0.00428   2.64737
   R12        2.05069   0.00534   0.00000   0.01352   0.01352   2.06421
   R13        2.66618  -0.00744   0.00000  -0.02214  -0.02214   2.64404
   R14        2.05751   0.00310   0.00000   0.00817   0.00817   2.06567
   R15        2.64315   0.00150   0.00000   0.00422   0.00422   2.64738
   R16        2.05751   0.00310   0.00000   0.00813   0.00813   2.06564
   R17        2.61002   0.00512   0.00000   0.00803   0.00803   2.61805
   R18        2.05072   0.00535   0.00000   0.01353   0.01353   2.06425
   R19        2.76349   0.02368   0.00000   0.05399   0.05398   2.81747
   R20        2.29787  -0.01045   0.00000  -0.02004  -0.02004   2.27783
    A1        1.89830   0.00489   0.00000   0.02741   0.02698   1.92529
    A2        1.89830   0.00488   0.00000   0.02738   0.02695   1.92525
    A3        1.93931  -0.00883   0.00000  -0.05443  -0.05431   1.88500
    A4        1.88737  -0.00114   0.00000   0.01244   0.01150   1.89887
    A5        1.91979   0.00025   0.00000  -0.00524  -0.00512   1.91466
    A6        1.91979   0.00025   0.00000  -0.00511  -0.00499   1.91480
    A7        2.15377   0.00120   0.00000   0.00085   0.00082   2.15459
    A8        2.17494   0.00134   0.00000  -0.00511  -0.00514   2.16980
    A9        1.95447  -0.00254   0.00000   0.00425   0.00431   1.95879
   A10        2.25520  -0.01963   0.00000  -0.07025  -0.07026   2.18494
   A11        1.85750   0.00027   0.00000  -0.00727  -0.00725   1.85025
   A12        2.17048   0.01936   0.00000   0.07752   0.07751   2.24800
   A13        2.27655   0.00119   0.00000   0.00072   0.00075   2.27730
   A14        1.87751   0.00119   0.00000   0.00535   0.00529   1.88280
   A15        2.12913  -0.00238   0.00000  -0.00607  -0.00604   2.12308
   A16        2.04463   0.00015   0.00000   0.00179   0.00178   2.04640
   A17        2.11495   0.00016   0.00000   0.00132   0.00133   2.11628
   A18        2.12361  -0.00030   0.00000  -0.00311  -0.00310   2.12050
   A19        2.10959   0.00220   0.00000   0.00410   0.00409   2.11368
   A20        2.08872  -0.00072   0.00000  -0.00206  -0.00205   2.08667
   A21        2.08487  -0.00148   0.00000  -0.00204  -0.00204   2.08284
   A22        2.10961   0.00219   0.00000   0.00390   0.00389   2.11350
   A23        2.08489  -0.00148   0.00000  -0.00201  -0.00200   2.08289
   A24        2.08868  -0.00071   0.00000  -0.00190  -0.00189   2.08679
   A25        2.04481   0.00011   0.00000   0.00152   0.00151   2.04632
   A26        2.12355  -0.00030   0.00000  -0.00275  -0.00275   2.12080
   A27        2.11482   0.00019   0.00000   0.00124   0.00124   2.11607
   A28        2.12860  -0.00226   0.00000  -0.00524  -0.00522   2.12339
   A29        1.87843   0.00109   0.00000   0.00662   0.00657   1.88500
   A30        2.27615   0.00118   0.00000  -0.00138  -0.00136   2.27480
   A31        1.85686  -0.00000   0.00000  -0.00895  -0.00892   1.84794
   A32        2.25995  -0.01910   0.00000  -0.06698  -0.06699   2.19296
   A33        2.16638   0.01910   0.00000   0.07593   0.07592   2.24229
    D1       -1.02590  -0.00206   0.00000  -0.02315  -0.02358  -1.04949
    D2        2.11569  -0.00206   0.00000  -0.02319  -0.02362   2.09207
    D3        1.02590   0.00205   0.00000   0.02244   0.02287   1.04877
    D4       -2.11569   0.00205   0.00000   0.02240   0.02283  -2.09286
    D5        3.14159  -0.00001   0.00000  -0.00029  -0.00029   3.14130
    D6       -0.00000  -0.00001   0.00000  -0.00033  -0.00033  -0.00033
    D7        0.00000  -0.00000   0.00000  -0.00011  -0.00010  -0.00010
    D8        3.14159  -0.00000   0.00000  -0.00009  -0.00009   3.14151
    D9       -3.14159  -0.00001   0.00000  -0.00007  -0.00007   3.14152
   D10       -0.00000  -0.00000   0.00000  -0.00005  -0.00005  -0.00005
   D11        3.14159   0.00000   0.00000   0.00013   0.00013  -3.14146
   D12       -0.00000  -0.00000   0.00000   0.00002   0.00002   0.00002
   D13        0.00000   0.00000   0.00000   0.00009   0.00009   0.00009
   D14       -3.14159  -0.00000   0.00000  -0.00002  -0.00002   3.14158
   D15        3.14159  -0.00000   0.00000  -0.00007  -0.00007   3.14153
   D16        0.00000  -0.00000   0.00000  -0.00002  -0.00002  -0.00002
   D17       -0.00000   0.00000   0.00000  -0.00005  -0.00005  -0.00005
   D18        3.14159   0.00000   0.00000   0.00000   0.00000  -3.14159
   D19       -3.14159   0.00000   0.00000   0.00000   0.00000  -3.14159
   D20        0.00000  -0.00000   0.00000  -0.00009  -0.00009  -0.00009
   D21       -0.00000   0.00000   0.00000  -0.00005  -0.00005  -0.00005
   D22       -3.14159  -0.00000   0.00000  -0.00014  -0.00014   3.14145
   D23        3.14159   0.00000   0.00000  -0.00004  -0.00004   3.14155
   D24       -0.00000   0.00000   0.00000   0.00007   0.00007   0.00007
   D25        0.00000   0.00000   0.00000   0.00000   0.00000   0.00000
   D26       -3.14159   0.00001   0.00000   0.00011   0.00011  -3.14148
   D27        0.00000  -0.00000   0.00000   0.00005   0.00005   0.00005
   D28       -3.14159  -0.00000   0.00000   0.00004   0.00004  -3.14155
   D29        3.14159   0.00000   0.00000   0.00014   0.00014  -3.14145
   D30       -0.00000   0.00000   0.00000   0.00013   0.00013   0.00013
   D31       -0.00000   0.00000   0.00000  -0.00001  -0.00001  -0.00001
   D32        3.14159  -0.00000   0.00000  -0.00007  -0.00007   3.14152
   D33       -3.14159  -0.00000   0.00000   0.00000   0.00000  -3.14159
   D34        0.00000  -0.00000   0.00000  -0.00006  -0.00006  -0.00006
   D35       -0.00000   0.00000   0.00000  -0.00004  -0.00004  -0.00004
   D36       -3.14159  -0.00000   0.00000  -0.00010  -0.00010   3.14150
   D37        3.14159   0.00000   0.00000   0.00002   0.00002  -3.14157
   D38        0.00000   0.00000   0.00000  -0.00003  -0.00003  -0.00003
   D39        0.00000  -0.00000   0.00000   0.00004   0.00004   0.00004
   D40       -3.14159  -0.00001   0.00000  -0.00010  -0.00009   3.14150
   D41        3.14159  -0.00000   0.00000   0.00010   0.00010  -3.14149
   D42       -0.00000  -0.00001   0.00000  -0.00004  -0.00004  -0.00004
   D43       -0.00000  -0.00001   0.00000  -0.00010  -0.00010  -0.00010
   D44       -3.14159  -0.00000   0.00000   0.00001   0.00001  -3.14158
   D45        3.14159  -0.00000   0.00000   0.00002   0.00002  -3.14157
   D46       -0.00000   0.00000   0.00000   0.00013   0.00014   0.00014
         Item               Value     Threshold  Converged?
 Maximum Force            0.023781     0.000450     NO 
 RMS     Force            0.006504     0.000300     NO 
 Maximum Displacement     0.168417     0.001800     NO 
 RMS     Displacement     0.033826     0.001200     NO 
 Predicted change in Energy=-6.348928D-03
 Lowest energy point so far.  Saving SCF results.
 Step   1 in ReCalcFC=50 IGetFC= 0 compute gradient.
 GradGradGradGradGradGradGradGradGradGradGradGradGradGradGradGradGradGrad

 Leave Link  103 at Wed Feb 28 20:59:48 2024, MaxMem=  2147483648 cpu:               4.5 elap:               0.2
 (Enter /software/gaussian-16RevA.03-el7-x86_64/g16/l202.exe)
                          Input orientation:                          
 ---------------------------------------------------------------------
 Center     Atomic      Atomic             Coordinates (Angstroms)
 Number     Number       Type             X           Y           Z
 ---------------------------------------------------------------------
      1          6           0       -3.186258    0.257582    0.218579
      2          7           0       -1.749302    0.148143    0.122000
      3          6           0       -1.092441   -1.021609   -0.245487
      4          8           0       -1.631781   -2.063688   -0.521909
      5          6           0        0.363194   -0.701470   -0.218992
      6          6           0        1.463839   -1.495214   -0.497947
      7          6           0        2.727875   -0.902069   -0.383970
      8          6           0        2.866192    0.437269   -0.003561
      9          6           0        1.745093    1.229496    0.275945
     10          6           0        0.500870    0.631390    0.159575
     11          6           0       -0.863215    1.190263    0.382814
     12          8           0       -1.170655    2.306248    0.718949
     13          1           0       -3.652378    0.042123   -0.755637
     14          1           0       -3.574669   -0.454861    0.963104
     15          1           0       -3.428680    1.283960    0.526239
     16          1           0        1.348453   -2.540233   -0.794285
     17          1           0        3.622270   -1.493900   -0.595346
     18          1           0        3.866439    0.870819    0.076363
     19          1           0        1.845154    2.275748    0.573565
 ---------------------------------------------------------------------
                    Distance matrix (angstroms):
                    1          2          3          4          5
     1  C    0.000000
     2  N    1.444349   0.000000
     3  C    2.497150   1.390983   0.000000
     4  O    2.890158   2.306649   1.205498   0.000000
     5  C    3.702683   2.302338   1.490659   2.434610   0.000000
     6  C    5.020866   3.661862   2.612011   3.147475   1.385375
     7  C    6.056800   4.626454   3.824694   4.513866   2.378902
     8  C    6.059190   4.626246   4.225829   5.172546   2.758285
     9  C    5.026542   3.661123   3.659367   4.783818   2.425538
    10  C    3.706497   2.301785   2.331335   3.503722   1.392402
    11  C    2.508663   1.392547   2.310776   3.463728   2.333432
    12  O    2.917200   2.312703   3.465673   4.566038   3.504111
    13  H    1.101267   2.098376   2.818698   2.927777   4.118949
    14  H    1.101252   2.098341   2.818395   2.927183   4.118851
    15  H    1.098579   2.067316   3.371828   3.941346   4.344607
    16  H    5.423768   4.202741   2.926663   3.030360   2.163965
    17  H    7.077161   5.662569   4.751206   5.285367   3.375080
    18  H    7.080736   5.662234   5.317459   6.260966   3.851240
    19  H    5.432689   4.201277   4.491422   5.667437   3.418797
                    6          7          8          9         10
     6  C    0.000000
     7  C    1.400928   0.000000
     8  C    2.438340   1.399168   0.000000
     9  C    2.846411   2.438220   1.400931   0.000000
    10  C    2.425302   2.757987   2.378875   1.385411   0.000000
    11  C    3.660971   4.226316   3.824234   2.610792   1.490940
    12  O    4.782521   5.168005   4.506799   3.139624   2.431469
    13  H    5.348409   6.460439   6.573699   5.621985   4.293521
    14  H    5.348230   6.460392   6.573814   5.622199   4.293672
    15  H    5.719222   6.596240   6.373616   5.180110   4.000206
    16  H    1.092334   2.180537   3.434282   3.938726   3.418690
    17  H    2.160628   1.093108   2.156682   3.420500   3.850961
    18  H    3.420590   2.156703   1.093091   2.160692   3.375101
    19  H    3.938743   3.434326   2.180733   1.092352   2.163885
                   11         12         13         14         15
    11  C    0.000000
    12  O    1.205375   0.000000
    13  H    3.223930   3.668735   0.000000
    14  H    3.224151   3.669144   1.790838   0.000000
    15  H    2.571178   2.486138   1.798723   1.798795   0.000000
    16  H    4.493733   5.667818   5.628354   5.627994   6.260130
    17  H    5.317998   6.256247   7.436771   7.436686   7.660963
    18  H    4.750325   5.276902   7.609966   7.610114   7.320644
    19  H    2.924026   3.019465   6.081013   6.081319   5.366489
                   16         17         18         19
    16  H    0.000000
    17  H    2.510903   0.000000
    18  H    4.328228   2.470366   0.000000
    19  H    5.031043   4.328364   2.511300   0.000000
 Symmetry turned off by external request.
 Stoichiometry    C9H7NO2
 Framework group  C1[X(C9H7NO2)]
 Deg. of freedom    51
 Full point group                 C1      NOp   1
 Rotational constants (GHZ):           1.7436131           0.8669370           0.5811884
 Leave Link  202 at Wed Feb 28 20:59:49 2024, MaxMem=  2147483648 cpu:               2.7 elap:               0.1
 (Enter /software/gaussian-16RevA.03-el7-x86_64/g16/l301.exe)
 Standard basis: def2SVPP (5D, 7F)
 Ernie: Thresh=  0.10000D-02 Tol=  0.10000D-05 Strict=F.
   182 basis functions,   328 primitive gaussians,   194 cartesian basis functions
    42 alpha electrons       42 beta electrons
       nuclear repulsion energy       657.0715277579 Hartrees.
 IExCor= 4639 DFT=T Ex+Corr=wB97XD ExCW=0 ScaHFX=  1.000000
 ScaDFX=  1.000000  1.000000  1.000000  1.000000 ScalE2=  1.000000  1.000000
 IRadAn=      5 IRanWt=     -1 IRanGd=            0 ICorTp=0 IEmpDi=121
 HFx  wShort=  0.000000 wLong=  0.200000 cFull=  0.222036 cShort=  0.000000 cLong=  0.777964
 DFx  wShort=  0.000000 wLong=  0.200000 cFull=  0.000000 cShort=  0.000000 cLong=  1.000000
 NAtoms=   19 NActive=   19 NUniq=   19 SFac= 1.00D+00 NAtFMM=   60 NAOKFM=F Big=F
 Integral buffers will be    131072 words long.
 Raffenetti 2 integral format.
 Two-electron integral symmetry is turned off.
 R6Disp:  Grimme-D2 Dispersion energy=       -0.0100274998 Hartrees.
 Nuclear repulsion after empirical dispersion term =      657.0615002581 Hartrees.
 Force inversion solution in PCM.
 ------------------------------------------------------------------------------
 Polarizable Continuum Model (PCM)
 =================================
 Model                : PCM.
 Atomic radii         : UFF (Universal Force Field).
 Polarization charges : Total charges.
 Charge compensation  : None.
 Solution method      : Matrix inversion.
 Cavity type          : Scaled VdW (van der Waals Surface) (Alpha=1.100).
 Cavity algorithm     : GePol (No added spheres)
                        Default sphere list used, NSphG=   19.
                        Lebedev-Laikov grids with approx.  5.0 points / Ang**2.
                        Smoothing algorithm: York/Karplus (Gamma=1.0000).
                        Polarization charges: spherical gaussians, with
                                              point-specific exponents (IZeta= 3).
                        Self-potential: point-specific (ISelfS= 7).
                        Self-field    : sphere-specific E.n sum rule (ISelfD= 2).
 1st derivatives      : Analytical E(r).r(x)/FMM algorithm (CHGder, D1EAlg=3).
                        Cavity 1st derivative terms included.
 Solvent              : TetraHydroFuran, Eps=   7.425700 Eps(inf)=   1.974025
 ------------------------------------------------------------------------------
 Spheres list:
 ISph  on   Nord     Re0    Alpha      Xe            Ye            Ze
    1   C      1    1.9255  1.100     -3.186258      0.257582      0.218579
    2   N      2    1.8300  1.100     -1.749302      0.148143      0.122000
    3   C      3    1.9255  1.100     -1.092441     -1.021609     -0.245487
    4   O      4    1.7500  1.100     -1.631781     -2.063688     -0.521909
    5   C      5    1.9255  1.100      0.363194     -0.701470     -0.218992
    6   C      6    1.9255  1.100      1.463839     -1.495214     -0.497947
    7   C      7    1.9255  1.100      2.727875     -0.902069     -0.383970
    8   C      8    1.9255  1.100      2.866192      0.437269     -0.003561
    9   C      9    1.9255  1.100      1.745093      1.229496      0.275945
   10   C     10    1.9255  1.100      0.500870      0.631390      0.159575
   11   C     11    1.9255  1.100     -0.863215      1.190263      0.382814
   12   O     12    1.7500  1.100     -1.170655      2.306248      0.718949
   13   H     13    1.4430  1.100     -3.652378      0.042123     -0.755637
   14   H     14    1.4430  1.100     -3.574669     -0.454861      0.963104
   15   H     15    1.4430  1.100     -3.428680      1.283960      0.526239
   16   H     16    1.4430  1.100      1.348453     -2.540233     -0.794285
   17   H     17    1.4430  1.100      3.622270     -1.493900     -0.595346
   18   H     18    1.4430  1.100      3.866439      0.870819      0.076363
   19   H     19    1.4430  1.100      1.845154      2.275748      0.573565
 ------------------------------------------------------------------------------
 GePol: Number of generator spheres                  =      19
 GePol: Total number of spheres                      =      19
 GePol: Number of exposed spheres                    =      19 (100.00%)
 GePol: Number of points                             =    1659
 GePol: Average weight of points                     =       0.13
 GePol: Minimum weight of points                     =   0.58D-09
 GePol: Maximum weight of points                     =    0.20577
 GePol: Number of points with low weight             =      97
 GePol: Fraction of low-weight points (<1% of avg)   =       5.85%
 GePol: Cavity surface area                          =    215.899 Ang**2
 GePol: Cavity volume                                =    219.035 Ang**3
 Leave Link  301 at Wed Feb 28 20:59:49 2024, MaxMem=  2147483648 cpu:               3.2 elap:               0.1
 (Enter /software/gaussian-16RevA.03-el7-x86_64/g16/l302.exe)
 NPDir=0 NMtPBC=     1 NCelOv=     1 NCel=       1 NClECP=     1 NCelD=      1
         NCelK=      1 NCelE2=     1 NClLst=     1 CellRange=     0.0.
 One-electron integrals computed using PRISM.
   1 Symmetry operations used in ECPInt.
 ECPInt:  NShTT=    3741 NPrTT=   15055 LenC2=    3665 LenP2D=   11028.
 LDataN:  DoStor=T MaxTD1= 4 Len=   56
 NBasis=   182 RedAO= T EigKep=  2.78D-04  NBF=   182
 NBsUse=   182 1.00D-06 EigRej= -1.00D+00 NBFU=   182
 Precomputing XC quadrature grid using
 IXCGrd= 4 IRadAn=           5 IRanWt=          -1 IRanGd=           0 AccXCQ= 0.00D+00.
 Generated NRdTot=       0 NPtTot=           0 NUsed=           0 NTot=          32
 NSgBfM=   193   193   193   193   193 MxSgAt=    19 MxSgA2=    19.
 Leave Link  302 at Wed Feb 28 20:59:49 2024, MaxMem=  2147483648 cpu:               5.8 elap:               0.2
 (Enter /software/gaussian-16RevA.03-el7-x86_64/g16/l303.exe)
 DipDrv:  MaxL=1.
 Leave Link  303 at Wed Feb 28 20:59:49 2024, MaxMem=  2147483648 cpu:               1.6 elap:               0.1
 (Enter /software/gaussian-16RevA.03-el7-x86_64/g16/l401.exe)
 Initial guess from the checkpoint file:  "NMPHTH-cavity-in-THF-wB97XD.chk"
 B after Tr=    -0.015883   -0.004801   -0.000653
         Rot=    1.000000   -0.000028    0.000220   -0.000783 Ang=  -0.09 deg.
 Guess basis will be translated and rotated to current coordinates.
 JPrj=2 DoOrth=T DoCkMO=T.
 Generating alternative initial guess.
 ExpMin= 1.22D-01 ExpMax= 2.27D+03 ExpMxC= 3.41D+02 IAcc=2 IRadAn=         4 AccDes= 0.00D+00
 Harris functional with IExCor= 4639 and IRadAn=       4 diagonalized for initial guess.
 HarFok:  IExCor= 4639 AccDes= 0.00D+00 IRadAn=         4 IDoV= 1 UseB2=F ITyADJ=14
 ICtDFT=  3500011 ScaDFX=  1.000000  1.000000  1.000000  1.000000
 FoFCou: FMM=F IPFlag=           0 FMFlag=      100000 FMFlg1=           0
         NFxFlg=           0 DoJE=T BraDBF=F KetDBF=T FulRan=T
         wScrn=  0.000000 ICntrl=       500 IOpCl=  0 I1Cent=   200000004 NGrid=           0
         NMat0=    1 NMatS0=      1 NMatT0=    0 NMatD0=    1 NMtDS0=    0 NMtDT0=    0
 Symmetry not used in FoFCou.
 Harris En= -528.818436476357    
 Leave Link  401 at Wed Feb 28 20:59:49 2024, MaxMem=  2147483648 cpu:               9.6 elap:               0.4
 (Enter /software/gaussian-16RevA.03-el7-x86_64/g16/l502.exe)
 Two-electron integral symmetry not used.
 Closed shell SCF:
 Using DIIS extrapolation, IDIIS=  1040.
 NGot=  2147483648 LenX=  2147401213 LenY=  2147363136
 Requested convergence on RMS density matrix=1.00D-08 within  32 cycles.
 Requested convergence on MAX density matrix=1.00D-06.
 Requested convergence on             energy=1.00D-06.
 No special actions if energy rises.
 Fock matrices will be formed incrementally for  20 cycles.

 Cycle   1  Pass 1  IDiag  1:
 FoFJK:  IHMeth= 1 ICntrl=       0 DoSepK=T KAlg= 0 I1Cent=           0 FoldK=F
 IRaf=         1 NMat=       1 IRICut=       1 DoRegI=T DoRafI=F ISym2E= 0 IDoP0=0 IntGTp=1.
 FoFCou: FMM=F IPFlag=           0 FMFlag=      100000 FMFlg1=           0
         NFxFlg=           0 DoJE=T BraDBF=F KetDBF=F FulRan=T
         wScrn=  0.000000 ICntrl=       500 IOpCl=  0 I1Cent=           0 NGrid=           0
         NMat0=    1 NMatS0=      1 NMatT0=    0 NMatD0=    1 NMtDS0=    0 NMtDT0=    0
 Symmetry not used in FoFCou.
 Inv3:  Mode=1 IEnd=     8256843.
 Iteration    1 A*A^-1 deviation from unit magnitude is 3.11D-15 for    750.
 Iteration    1 A*A^-1 deviation from orthogonality  is 2.44D-15 for   1616    371.
 Iteration    1 A^-1*A deviation from unit magnitude is 3.22D-15 for    587.
 Iteration    1 A^-1*A deviation from orthogonality  is 2.02D-15 for   1163    695.
 E= -551.813956500055    
 DIIS: error= 6.24D-03 at cycle   1 NSaved=   1.
 NSaved= 1 IEnMin= 1 EnMin= -551.813956500055     IErMin= 1 ErrMin= 6.24D-03
 ErrMax= 6.24D-03  0.00D+00 EMaxC= 1.00D-01 BMatC= 7.01D-03 BMatP= 7.01D-03
 IDIUse=3 WtCom= 9.38D-01 WtEn= 6.24D-02
 Coeff-Com:  0.100D+01
 Coeff-En:   0.100D+01
 Coeff:      0.100D+01
 Gap=     0.824 Goal=   None    Shift=    0.000
 GapD=    0.824 DampG=2.000 DampE=1.000 DampFc=2.0000 IDamp=-1.
 RMSDP=8.49D-04 MaxDP=2.50D-02              OVMax= 1.65D-02

 Cycle   2  Pass 1  IDiag  1:
 RMSU=  8.38D-04    CP:  9.95D-01
 E= -551.820242000135     Delta-E=       -0.006285500080 Rises=F Damp=F
 DIIS: error= 1.88D-03 at cycle   2 NSaved=   2.
 NSaved= 2 IEnMin= 2 EnMin= -551.820242000135     IErMin= 2 ErrMin= 1.88D-03
 ErrMax= 1.88D-03  0.00D+00 EMaxC= 1.00D-01 BMatC= 5.98D-04 BMatP= 7.01D-03
 IDIUse=3 WtCom= 9.81D-01 WtEn= 1.88D-02
 Coeff-Com:  0.365D-01 0.964D+00
 Coeff-En:   0.000D+00 0.100D+01
 Coeff:      0.358D-01 0.964D+00
 Gap=     0.330 Goal=   None    Shift=    0.000
 RMSDP=2.53D-04 MaxDP=6.99D-03 DE=-6.29D-03 OVMax= 1.06D-02

 Cycle   3  Pass 1  IDiag  1:
 RMSU=  2.51D-04    CP:  9.96D-01  1.04D+00
 E= -551.820123091253     Delta-E=        0.000118908882 Rises=F Damp=F
 DIIS: error= 2.48D-03 at cycle   3 NSaved=   3.
 NSaved= 3 IEnMin= 2 EnMin= -551.820242000135     IErMin= 2 ErrMin= 1.88D-03
 ErrMax= 2.48D-03  0.00D+00 EMaxC= 1.00D-01 BMatC= 9.40D-04 BMatP= 5.98D-04
 IDIUse=3 WtCom= 1.67D-01 WtEn= 8.33D-01
 Coeff-Com: -0.647D-01 0.592D+00 0.473D+00
 Coeff-En:   0.000D+00 0.550D+00 0.450D+00
 Coeff:     -0.108D-01 0.557D+00 0.454D+00
 Gap=     0.328 Goal=   None    Shift=    0.000
 RMSDP=1.62D-04 MaxDP=4.60D-03 DE= 1.19D-04 OVMax= 7.47D-03

 Cycle   4  Pass 1  IDiag  1:
 RMSU=  6.96D-05    CP:  9.95D-01  1.10D+00  4.67D-01
 E= -551.820832438628     Delta-E=       -0.000709347375 Rises=F Damp=F
 DIIS: error= 2.42D-04 at cycle   4 NSaved=   4.
 NSaved= 4 IEnMin= 4 EnMin= -551.820832438628     IErMin= 4 ErrMin= 2.42D-04
 ErrMax= 2.42D-04  0.00D+00 EMaxC= 1.00D-01 BMatC= 1.18D-05 BMatP= 5.98D-04
 IDIUse=3 WtCom= 9.98D-01 WtEn= 2.42D-03
 Coeff-Com: -0.968D-02-0.395D-01 0.718D-01 0.977D+00
 Coeff-En:   0.000D+00 0.000D+00 0.000D+00 0.100D+01
 Coeff:     -0.965D-02-0.394D-01 0.716D-01 0.977D+00
 Gap=     0.328 Goal=   None    Shift=    0.000
 RMSDP=2.89D-05 MaxDP=5.60D-04 DE=-7.09D-04 OVMax= 9.32D-04

 Cycle   5  Pass 1  IDiag  1:
 RMSU=  1.77D-05    CP:  9.95D-01  1.11D+00  5.41D-01  1.16D+00
 E= -551.820844465651     Delta-E=       -0.000012027023 Rises=F Damp=F
 DIIS: error= 5.41D-05 at cycle   5 NSaved=   5.
 NSaved= 5 IEnMin= 5 EnMin= -551.820844465651     IErMin= 5 ErrMin= 5.41D-05
 ErrMax= 5.41D-05  0.00D+00 EMaxC= 1.00D-01 BMatC= 6.66D-07 BMatP= 1.18D-05
 IDIUse=1 WtCom= 1.00D+00 WtEn= 0.00D+00
 Coeff-Com:  0.379D-04-0.458D-01 0.331D-03 0.332D+00 0.713D+00
 Coeff:      0.379D-04-0.458D-01 0.331D-03 0.332D+00 0.713D+00
 Gap=     0.328 Goal=   None    Shift=    0.000
 RMSDP=7.12D-06 MaxDP=1.33D-04 DE=-1.20D-05 OVMax= 4.20D-04

 Cycle   6  Pass 1  IDiag  1:
 RMSU=  5.25D-06    CP:  9.95D-01  1.11D+00  5.52D-01  1.22D+00  9.79D-01
 E= -551.820845230513     Delta-E=       -0.000000764862 Rises=F Damp=F
 DIIS: error= 1.98D-05 at cycle   6 NSaved=   6.
 NSaved= 6 IEnMin= 6 EnMin= -551.820845230513     IErMin= 6 ErrMin= 1.98D-05
 ErrMax= 1.98D-05  0.00D+00 EMaxC= 1.00D-01 BMatC= 6.37D-08 BMatP= 6.66D-07
 IDIUse=1 WtCom= 1.00D+00 WtEn= 0.00D+00
 Coeff-Com:  0.891D-03-0.121D-01-0.704D-02 0.190D-01 0.238D+00 0.762D+00
 Coeff:      0.891D-03-0.121D-01-0.704D-02 0.190D-01 0.238D+00 0.762D+00
 Gap=     0.328 Goal=   None    Shift=    0.000
 RMSDP=2.59D-06 MaxDP=5.04D-05 DE=-7.65D-07 OVMax= 1.90D-04

 Cycle   7  Pass 1  IDiag  1:
 RMSU=  1.80D-06    CP:  9.95D-01  1.11D+00  5.54D-01  1.23D+00  1.06D+00
                    CP:  1.03D+00
 E= -551.820845344045     Delta-E=       -0.000000113533 Rises=F Damp=F
 DIIS: error= 1.23D-05 at cycle   7 NSaved=   7.
 NSaved= 7 IEnMin= 7 EnMin= -551.820845344045     IErMin= 7 ErrMin= 1.23D-05
 ErrMax= 1.23D-05  0.00D+00 EMaxC= 1.00D-01 BMatC= 6.58D-09 BMatP= 6.37D-08
 IDIUse=1 WtCom= 1.00D+00 WtEn= 0.00D+00
 Coeff-Com:  0.184D-03 0.179D-02-0.126D-02-0.259D-01-0.218D-01 0.135D+00
 Coeff-Com:  0.912D+00
 Coeff:      0.184D-03 0.179D-02-0.126D-02-0.259D-01-0.218D-01 0.135D+00
 Coeff:      0.912D+00
 Gap=     0.328 Goal=   None    Shift=    0.000
 RMSDP=1.25D-06 MaxDP=2.26D-05 DE=-1.14D-07 OVMax= 1.07D-04

 Cycle   8  Pass 1  IDiag  1:
 RMSU=  7.39D-07    CP:  9.95D-01  1.11D+00  5.55D-01  1.24D+00  1.08D+00
                    CP:  1.16D+00  1.25D+00
 E= -551.820845368711     Delta-E=       -0.000000024666 Rises=F Damp=F
 DIIS: error= 4.01D-06 at cycle   8 NSaved=   8.
 NSaved= 8 IEnMin= 8 EnMin= -551.820845368711     IErMin= 8 ErrMin= 4.01D-06
 ErrMax= 4.01D-06  0.00D+00 EMaxC= 1.00D-01 BMatC= 2.84D-09 BMatP= 6.58D-09
 IDIUse=1 WtCom= 1.00D+00 WtEn= 0.00D+00
 Coeff-Com: -0.126D-03 0.368D-02 0.120D-02-0.157D-01-0.674D-01-0.126D+00
 Coeff-Com:  0.430D+00 0.774D+00
 Coeff:     -0.126D-03 0.368D-02 0.120D-02-0.157D-01-0.674D-01-0.126D+00
 Coeff:      0.430D+00 0.774D+00
 Gap=     0.328 Goal=   None    Shift=    0.000
 RMSDP=6.91D-07 MaxDP=1.31D-05 DE=-2.47D-08 OVMax= 5.99D-05

 Cycle   9  Pass 1  IDiag  1:
 RMSU=  3.62D-07    CP:  9.95D-01  1.11D+00  5.55D-01  1.24D+00  1.10D+00
                    CP:  1.22D+00  1.50D+00  1.11D+00
 E= -551.820845376892     Delta-E=       -0.000000008181 Rises=F Damp=F
 DIIS: error= 1.70D-06 at cycle   9 NSaved=   9.
 NSaved= 9 IEnMin= 9 EnMin= -551.820845376892     IErMin= 9 ErrMin= 1.70D-06
 ErrMax= 1.70D-06  0.00D+00 EMaxC= 1.00D-01 BMatC= 3.65D-10 BMatP= 2.84D-09
 IDIUse=1 WtCom= 1.00D+00 WtEn= 0.00D+00
 Coeff-Com: -0.695D-04 0.794D-03 0.594D-03-0.325D-03-0.170D-01-0.618D-01
 Coeff-Com: -0.246D-01 0.226D+00 0.877D+00
 Coeff:     -0.695D-04 0.794D-03 0.594D-03-0.325D-03-0.170D-01-0.618D-01
 Coeff:     -0.246D-01 0.226D+00 0.877D+00
 Gap=     0.328 Goal=   None    Shift=    0.000
 RMSDP=3.07D-07 MaxDP=6.58D-06 DE=-8.18D-09 OVMax= 2.87D-05

 Cycle  10  Pass 1  IDiag  1:
 RMSU=  1.55D-07    CP:  9.95D-01  1.11D+00  5.55D-01  1.24D+00  1.10D+00
                    CP:  1.23D+00  1.58D+00  1.34D+00  1.25D+00
 E= -551.820845378333     Delta-E=       -0.000000001441 Rises=F Damp=F
 DIIS: error= 1.05D-06 at cycle  10 NSaved=  10.
 NSaved=10 IEnMin=10 EnMin= -551.820845378333     IErMin=10 ErrMin= 1.05D-06
 ErrMax= 1.05D-06  0.00D+00 EMaxC= 1.00D-01 BMatC= 8.93D-11 BMatP= 3.65D-10
 IDIUse=1 WtCom= 1.00D+00 WtEn= 0.00D+00
 Coeff-Com:  0.180D-05-0.587D-03-0.326D-04 0.377D-02 0.920D-02 0.389D-02
 Coeff-Com: -0.117D+00-0.107D+00 0.363D+00 0.845D+00
 Coeff:      0.180D-05-0.587D-03-0.326D-04 0.377D-02 0.920D-02 0.389D-02
 Coeff:     -0.117D+00-0.107D+00 0.363D+00 0.845D+00
 Gap=     0.328 Goal=   None    Shift=    0.000
 RMSDP=1.57D-07 MaxDP=3.19D-06 DE=-1.44D-09 OVMax= 1.72D-05

 Cycle  11  Pass 1  IDiag  1:
 RMSU=  5.01D-08    CP:  9.95D-01  1.11D+00  5.55D-01  1.24D+00  1.10D+00
                    CP:  1.24D+00  1.63D+00  1.45D+00  1.50D+00  1.02D+00
 E= -551.820845378620     Delta-E=       -0.000000000287 Rises=F Damp=F
 DIIS: error= 1.30D-07 at cycle  11 NSaved=  11.
 NSaved=11 IEnMin=11 EnMin= -551.820845378620     IErMin=11 ErrMin= 1.30D-07
 ErrMax= 1.30D-07  0.00D+00 EMaxC= 1.00D-01 BMatC= 3.25D-12 BMatP= 8.93D-11
 IDIUse=1 WtCom= 1.00D+00 WtEn= 0.00D+00
 Coeff-Com:  0.596D-05-0.130D-03-0.483D-04 0.440D-03 0.246D-02 0.582D-02
 Coeff-Com: -0.870D-02-0.320D-01-0.376D-01 0.965D-01 0.973D+00
 Coeff:      0.596D-05-0.130D-03-0.483D-04 0.440D-03 0.246D-02 0.582D-02
 Coeff:     -0.870D-02-0.320D-01-0.376D-01 0.965D-01 0.973D+00
 Gap=     0.328 Goal=   None    Shift=    0.000
 RMSDP=3.48D-08 MaxDP=7.62D-07 DE=-2.87D-10 OVMax= 2.76D-06

 Cycle  12  Pass 1  IDiag  1:
 RMSU=  1.27D-08    CP:  9.95D-01  1.11D+00  5.55D-01  1.24D+00  1.10D+00
                    CP:  1.23D+00  1.63D+00  1.47D+00  1.55D+00  1.13D+00
                    CP:  1.23D+00
 E= -551.820845378619     Delta-E=        0.000000000001 Rises=F Damp=F
 DIIS: error= 1.10D-07 at cycle  12 NSaved=  12.
 NSaved=12 IEnMin=11 EnMin= -551.820845378620     IErMin=12 ErrMin= 1.10D-07
 ErrMax= 1.10D-07  0.00D+00 EMaxC= 1.00D-01 BMatC= 7.93D-13 BMatP= 3.25D-12
 IDIUse=1 WtCom= 1.00D+00 WtEn= 0.00D+00
 Coeff-Com:  0.210D-05-0.197D-07-0.142D-04-0.151D-03 0.200D-03 0.187D-02
 Coeff-Com:  0.707D-02-0.441D-02-0.475D-01-0.269D-01 0.399D+00 0.671D+00
 Coeff:      0.210D-05-0.197D-07-0.142D-04-0.151D-03 0.200D-03 0.187D-02
 Coeff:      0.707D-02-0.441D-02-0.475D-01-0.269D-01 0.399D+00 0.671D+00
 Gap=     0.328 Goal=   None    Shift=    0.000
 RMSDP=8.25D-09 MaxDP=2.61D-07 DE= 1.14D-12 OVMax= 6.89D-07

 Error on total polarization charges =  0.00673
 SCF Done:  E(RwB97XD) =  -551.820845379     A.U. after   12 cycles
            NFock= 12  Conv=0.82D-08     -V/T= 2.0094
 KE= 5.466913946900D+02 PE=-2.598492500418D+03 EE= 8.429187600911D+02
 Leave Link  502 at Wed Feb 28 21:00:01 2024, MaxMem=  2147483648 cpu:             311.7 elap:              11.4
 (Enter /software/gaussian-16RevA.03-el7-x86_64/g16/l508.exe)
 QCSCF skips out because SCF is already converged.
 Leave Link  508 at Wed Feb 28 21:00:01 2024, MaxMem=  2147483648 cpu:               0.8 elap:               0.1
 (Enter /software/gaussian-16RevA.03-el7-x86_64/g16/l801.exe)
 DoSCS=F DFT=T ScalE2(SS,OS)=  1.000000  1.000000
 Range of M.O.s used for correlation:     1   182
 NBasis=   182 NAE=    42 NBE=    42 NFC=     0 NFV=     0
 NROrb=    182 NOA=    42 NOB=    42 NVA=   140 NVB=   140

 **** Warning!!: The largest alpha MO coefficient is  0.16863766D+02

 Leave Link  801 at Wed Feb 28 21:00:01 2024, MaxMem=  2147483648 cpu:               1.7 elap:               0.1
 (Enter /software/gaussian-16RevA.03-el7-x86_64/g16/l1101.exe)
 Leave Link 1101 at Wed Feb 28 21:00:01 2024, MaxMem=  2147483648 cpu:               1.7 elap:               0.1
 (Enter /software/gaussian-16RevA.03-el7-x86_64/g16/l1102.exe)
 Symmetrizing basis deriv contribution to polar:
 IMax=3 JMax=2 DiffMx= 0.00D+00
 Leave Link 1102 at Wed Feb 28 21:00:01 2024, MaxMem=  2147483648 cpu:               1.9 elap:               0.1
 (Enter /software/gaussian-16RevA.03-el7-x86_64/g16/l1110.exe)
 Leave Link 1110 at Wed Feb 28 21:00:01 2024, MaxMem=  2147483648 cpu:               1.2 elap:               0.1
 (Enter /software/gaussian-16RevA.03-el7-x86_64/g16/l1002.exe)
 Minotr:  Closed shell wavefunction.
 Leave Link 1002 at Wed Feb 28 21:00:01 2024, MaxMem=  2147483648 cpu:               1.0 elap:               0.1
 (Enter /software/gaussian-16RevA.03-el7-x86_64/g16/l701.exe)
 ... and contract with generalized density number  0.
 Compute integral first derivatives.
 R6Disp: Adding Grimme-D2 dispersion energy 1st derivatives to the gradient.
   1 Symmetry operations used in ECPInt.
 ECPInt:  NShTT=    3741 NPrTT=   15055 LenC2=    3665 LenP2D=   11028.
 LDataN:  DoStor=T MaxTD1= 5 Len=  102
 D1PCM: PCM CHGder 1st derivatives, ID1Alg=3 FixD1E=F DoIter=F DoCFld=F I1PDM=0.
 GePol: Maximum number of non-zero 1st derivatives   =     213
 Leave Link  701 at Wed Feb 28 21:00:02 2024, MaxMem=  2147483648 cpu:              18.1 elap:               0.7
 (Enter /software/gaussian-16RevA.03-el7-x86_64/g16/l702.exe)
 L702 exits ... SP integral derivatives will be done elsewhere.
 Leave Link  702 at Wed Feb 28 21:00:02 2024, MaxMem=  2147483648 cpu:               1.3 elap:               0.1
 (Enter /software/gaussian-16RevA.03-el7-x86_64/g16/l703.exe)
 Integral derivatives from FoFJK, PRISM(SPDF).
 Compute integral first derivatives, UseDBF=F ICtDFT=           0.
 Calling FoFJK, ICntrl=      2127 FMM=F ISym2X=0 I1Cent= 0 IOpClX= 0 NMat=1 NMatS=1 NMatT=0.
 FoFJK:  IHMeth= 1 ICntrl=    2127 DoSepK=T KAlg= 0 I1Cent=           0 FoldK=F
 IRaf=         1 NMat=       1 IRICut=       1 DoRegI=T DoRafI=F ISym2E= 0 IDoP0=0 IntGTp=1.
 FoFCou: FMM=F IPFlag=           0 FMFlag=      100000 FMFlg1=         800
         NFxFlg=           0 DoJE=F BraDBF=F KetDBF=F FulRan=T
         wScrn=  0.000000 ICntrl=      2527 IOpCl=  0 I1Cent=           0 NGrid=           0
         NMat0=    1 NMatS0=      1 NMatT0=    0 NMatD0=    1 NMtDS0=    0 NMtDT0=    0
 Symmetry not used in FoFCou.
 Leave Link  703 at Wed Feb 28 21:00:04 2024, MaxMem=  2147483648 cpu:              50.7 elap:               1.8
 (Enter /software/gaussian-16RevA.03-el7-x86_64/g16/l716.exe)
 Dipole        = 1.09821019D+00-8.26950296D-02-7.35289274D-02
 Polarizability= 0.00000000D+00 0.00000000D+00 0.00000000D+00
                 0.00000000D+00 0.00000000D+00 0.00000000D+00
 -------------------------------------------------------------------
 Center     Atomic                   Forces (Hartrees/Bohr)
 Number     Number              X              Y              Z
 -------------------------------------------------------------------
      1        6           0.000177335   -0.001387627   -0.000412930
      2        7          -0.002105589    0.000524226    0.000249075
      3        6           0.000089818   -0.002527964   -0.000719992
      4        8          -0.001519261   -0.000853097   -0.000183844
      5        6           0.002082472    0.000801186    0.000139379
      6        6           0.000224515    0.000193045    0.000044282
      7        6          -0.000099929    0.000032496    0.000015786
      8        6          -0.000114388   -0.000014090    0.000000875
      9        6           0.000172027   -0.000204067   -0.000067031
     10        6           0.001849095   -0.001127145   -0.000414132
     11        6           0.000777854    0.002721386    0.000737049
     12        8          -0.001219426    0.001055839    0.000374123
     13        1          -0.000360725    0.000376675   -0.000239889
     14        1          -0.000329212    0.000177405    0.000432425
     15        1           0.000103431    0.000259554    0.000071656
     16        1          -0.000011467   -0.000231557   -0.000067230
     17        1           0.000113202   -0.000082841   -0.000029979
     18        1           0.000127006    0.000065253    0.000013805
     19        1           0.000043241    0.000221323    0.000056573
 -------------------------------------------------------------------
 Cartesian Forces:  Max     0.002721386 RMS     0.000828471
 Leave Link  716 at Wed Feb 28 21:00:04 2024, MaxMem=  2147483648 cpu:               0.6 elap:               0.0
 (Enter /software/gaussian-16RevA.03-el7-x86_64/g16/l103.exe)

 GradGradGradGradGradGradGradGradGradGradGradGradGradGradGradGradGradGrad
 Berny optimization.
 Using GEDIIS/GDIIS optimizer.
 FormGI is forming the generalized inverse of G from B-inverse, IUseBI=4.
 Internal  Forces:  Max     0.002631271 RMS     0.000621466
 Step   2 in ReCalcFC=50 IGetFC= 0 update Hessian.
 Search for a local minimum.
 Step number   2 out of a maximum of  114
 All quantities printed in internal units (Hartrees-Bohrs-Radians)
 RMS Force = .62147D-03 SwitMx=.10000D-02 MixMth= 2
 Mixed Optimization -- En-DIIS/RFO-DIIS
 Update second derivatives using D2CorX and points    1    2
 DE= -6.49D-03 DEPred=-6.35D-03 R= 1.02D+00
 TightC=F SS=  1.41D+00  RLast= 2.03D-01 DXNew= 5.0454D-01 6.0806D-01
 Trust test= 1.02D+00 RLast= 2.03D-01 DXMaxT set to 5.05D-01
 ITU=  1  0
 Use linear search instead of GDIIS.
     Eigenvalues ---   -0.00001   0.00615   0.01011   0.01486   0.01592
     Eigenvalues ---    0.01799   0.01863   0.02150   0.02428   0.02713
     Eigenvalues ---    0.03028   0.03197   0.04318   0.04939   0.06068
     Eigenvalues ---    0.06162   0.10714   0.10771   0.12098   0.12459
     Eigenvalues ---    0.13495   0.14784   0.16718   0.18314   0.18721
     Eigenvalues ---    0.19200   0.19638   0.20581   0.24116   0.24442
     Eigenvalues ---    0.25593   0.28370   0.30275   0.35526   0.35870
     Eigenvalues ---    0.36026   0.36774   0.37382   0.37488   0.38029
     Eigenvalues ---    0.38124   0.38654   0.39241   0.41340   0.43749
     Eigenvalues ---    0.43826   0.49312   0.51105   0.53883   0.85999
     Eigenvalues ---    0.88008
 Eigenvalue     1 is  -1.42D-05 should be greater than     0.000000 Eigenvector:
                          D6        D4        D2        D5        D3
   1                    0.42054   0.41819   0.41801   0.39799   0.39563
                          D1        D12       D7        D11       D8
   1                    0.39545  -0.02195   0.01962  -0.01812   0.01802
 RFO step:  Lambda=-3.59454842D-05 EMin=-1.42374725D-05
 Quartic linear search produced a step of  0.08310.
 Iteration  1 RMS(Cart)=  0.02353715 RMS(Int)=  0.00071713
 Iteration  2 RMS(Cart)=  0.00073843 RMS(Int)=  0.00001565
 Iteration  3 RMS(Cart)=  0.00000055 RMS(Int)=  0.00001565
 ITry= 1 IFail=0 DXMaxC= 1.32D-01 DCOld= 1.00D+10 DXMaxT= 5.05D-01 DXLimC= 3.00D+00 Rises=F
 Variable       Old X    -DE/DX   Delta X   Delta X   Delta X     New X
                                 (Linear)    (Quad)   (Total)
    R1        2.72942   0.00035   0.00045  -0.00027   0.00017   2.72960
    R2        2.08109   0.00029   0.00113   0.00013   0.00126   2.08235
    R3        2.08106   0.00029   0.00113  -0.00080   0.00033   2.08140
    R4        2.07601   0.00024   0.00092   0.00022   0.00115   2.07716
    R5        2.62858   0.00226   0.00359   0.00161   0.00520   2.63378
    R6        2.63153   0.00259   0.00395   0.00215   0.00610   2.63763
    R7        2.27806   0.00146  -0.00165   0.00236   0.00071   2.27877
    R8        2.81694   0.00263   0.00452   0.00255   0.00707   2.82401
    R9        2.61798   0.00024   0.00067  -0.00024   0.00043   2.61841
   R10        2.63126   0.00074   0.00140  -0.00066   0.00073   2.63199
   R11        2.64737  -0.00002   0.00036  -0.00038  -0.00003   2.64734
   R12        2.06421   0.00024   0.00112  -0.00038   0.00074   2.06495
   R13        2.64404  -0.00000  -0.00184   0.00164  -0.00020   2.64385
   R14        2.06567   0.00014   0.00068  -0.00026   0.00042   2.06609
   R15        2.64738  -0.00002   0.00035  -0.00037  -0.00002   2.64735
   R16        2.06564   0.00014   0.00068  -0.00026   0.00041   2.06606
   R17        2.61805   0.00024   0.00067  -0.00021   0.00046   2.61850
   R18        2.06425   0.00023   0.00112  -0.00042   0.00071   2.06495
   R19        2.81747   0.00259   0.00449   0.00253   0.00702   2.82449
   R20        2.27783   0.00139  -0.00167   0.00218   0.00052   2.27835
    A1        1.92529   0.00049   0.00224   0.00430   0.00650   1.93179
    A2        1.92525   0.00049   0.00224  -0.00149   0.00070   1.92595
    A3        1.88500  -0.00055  -0.00451   0.00025  -0.00425   1.88075
    A4        1.89887  -0.00001   0.00096   0.00312   0.00398   1.90285
    A5        1.91466  -0.00021  -0.00043  -0.00420  -0.00461   1.91006
    A6        1.91480  -0.00021  -0.00041  -0.00210  -0.00251   1.91229
    A7        2.15459  -0.00030   0.00007  -0.00188  -0.00182   2.15278
    A8        2.16980  -0.00004  -0.00043  -0.00029  -0.00073   2.16908
    A9        1.95879   0.00034   0.00036   0.00217   0.00254   1.96133
   A10        2.18494  -0.00083  -0.00584   0.00218  -0.00366   2.18128
   A11        1.85025  -0.00055  -0.00060  -0.00198  -0.00258   1.84767
   A12        2.24800   0.00138   0.00644  -0.00020   0.00624   2.25424
   A13        2.27730  -0.00023   0.00006  -0.00092  -0.00085   2.27645
   A14        1.88280   0.00041   0.00044   0.00092   0.00136   1.88416
   A15        2.12308  -0.00018  -0.00050  -0.00001  -0.00051   2.12258
   A16        2.04640   0.00013   0.00015   0.00059   0.00073   2.04714
   A17        2.11628  -0.00005   0.00011  -0.00039  -0.00028   2.11600
   A18        2.12050  -0.00008  -0.00026  -0.00020  -0.00046   2.12005
   A19        2.11368   0.00004   0.00034  -0.00056  -0.00023   2.11345
   A20        2.08667  -0.00003  -0.00017   0.00010  -0.00007   2.08660
   A21        2.08284  -0.00001  -0.00017   0.00047   0.00030   2.08314
   A22        2.11350   0.00005   0.00032  -0.00050  -0.00017   2.11333
   A23        2.08289  -0.00002  -0.00017   0.00044   0.00027   2.08317
   A24        2.08679  -0.00003  -0.00016   0.00006  -0.00010   2.08669
   A25        2.04632   0.00013   0.00013   0.00059   0.00071   2.04703
   A26        2.12080  -0.00009  -0.00023  -0.00031  -0.00054   2.12026
   A27        2.11607  -0.00004   0.00010  -0.00027  -0.00017   2.11590
   A28        2.12339  -0.00018  -0.00043  -0.00010  -0.00054   2.12285
   A29        1.88500   0.00040   0.00055   0.00109   0.00163   1.88664
   A30        2.27480  -0.00022  -0.00011  -0.00099  -0.00110   2.27370
   A31        1.84794  -0.00061  -0.00074  -0.00221  -0.00295   1.84499
   A32        2.19296  -0.00071  -0.00557   0.00251  -0.00306   2.18990
   A33        2.24229   0.00132   0.00631  -0.00030   0.00600   2.24829
    D1       -1.04949  -0.00031  -0.00196  -0.07214  -0.07415  -1.12364
    D2        2.09207  -0.00031  -0.00196  -0.07612  -0.07813   2.01394
    D3        1.04877   0.00031   0.00190  -0.06644  -0.06450   0.98427
    D4       -2.09286   0.00031   0.00190  -0.07042  -0.06848  -2.16134
    D5        3.14130  -0.00000  -0.00002  -0.06972  -0.06974   3.07156
    D6       -0.00033  -0.00000  -0.00003  -0.07369  -0.07371  -0.07404
    D7       -0.00010   0.00000  -0.00001  -0.00334  -0.00335  -0.00346
    D8        3.14151  -0.00000  -0.00001  -0.00318  -0.00319   3.13831
    D9        3.14152   0.00000  -0.00001   0.00020   0.00020  -3.14146
   D10       -0.00005  -0.00000  -0.00000   0.00036   0.00036   0.00031
   D11       -3.14146   0.00000   0.00001   0.00334   0.00335  -3.13811
   D12        0.00002   0.00001   0.00000   0.00420   0.00420   0.00422
   D13        0.00009   0.00000   0.00001  -0.00024  -0.00024  -0.00014
   D14        3.14158   0.00001  -0.00000   0.00061   0.00061  -3.14100
   D15        3.14153  -0.00000  -0.00001  -0.00069  -0.00070   3.14083
   D16       -0.00002  -0.00000  -0.00000  -0.00034  -0.00034  -0.00036
   D17       -0.00005  -0.00000  -0.00000  -0.00052  -0.00053  -0.00057
   D18       -3.14159  -0.00000   0.00000  -0.00018  -0.00017   3.14142
   D19       -3.14159   0.00000   0.00000   0.00028   0.00028  -3.14131
   D20       -0.00009  -0.00000  -0.00001   0.00020   0.00019   0.00011
   D21       -0.00005   0.00000  -0.00000  -0.00011  -0.00011  -0.00016
   D22        3.14145   0.00000  -0.00001  -0.00019  -0.00020   3.14125
   D23        3.14155   0.00000  -0.00000  -0.00020  -0.00020   3.14135
   D24        0.00007   0.00000   0.00001   0.00020   0.00021   0.00028
   D25        0.00000   0.00000   0.00000   0.00011   0.00011   0.00012
   D26       -3.14148   0.00000   0.00001   0.00051   0.00052  -3.14096
   D27        0.00005  -0.00000   0.00000   0.00000   0.00001   0.00006
   D28       -3.14155  -0.00000   0.00000   0.00002   0.00003  -3.14152
   D29       -3.14145  -0.00000   0.00001   0.00008   0.00010  -3.14135
   D30        0.00013   0.00000   0.00001   0.00010   0.00012   0.00025
   D31       -0.00001   0.00000  -0.00000   0.00010   0.00010   0.00010
   D32        3.14152   0.00000  -0.00001   0.00005   0.00005   3.14157
   D33       -3.14159  -0.00000   0.00000   0.00008   0.00008  -3.14151
   D34       -0.00006  -0.00000  -0.00001   0.00003   0.00003  -0.00004
   D35       -0.00004   0.00000  -0.00000  -0.00010  -0.00010  -0.00014
   D36        3.14150   0.00000  -0.00001  -0.00005  -0.00006   3.14143
   D37       -3.14157   0.00000   0.00000  -0.00005  -0.00004   3.14157
   D38       -0.00003   0.00000  -0.00000  -0.00000  -0.00001  -0.00004
   D39        0.00004  -0.00000   0.00000  -0.00001  -0.00000   0.00004
   D40        3.14150  -0.00000  -0.00001  -0.00050  -0.00051   3.14099
   D41       -3.14149  -0.00000   0.00001  -0.00005  -0.00004  -3.14154
   D42       -0.00004  -0.00000  -0.00000  -0.00055  -0.00055  -0.00059
   D43       -0.00010  -0.00000  -0.00001   0.00001   0.00001  -0.00009
   D44       -3.14158  -0.00001   0.00000  -0.00088  -0.00088   3.14073
   D45       -3.14157  -0.00000   0.00000   0.00046   0.00046  -3.14111
   D46        0.00014  -0.00001   0.00001  -0.00043  -0.00042  -0.00029
         Item               Value     Threshold  Converged?
 Maximum Force            0.002631     0.000450     NO 
 RMS     Force            0.000621     0.000300     NO 
 Maximum Displacement     0.131788     0.001800     NO 
 RMS     Displacement     0.023538     0.001200     NO 
 Predicted change in Energy=-5.421776D-05
 Lowest energy point so far.  Saving SCF results.
 Step   2 in ReCalcFC=50 IGetFC= 0 compute gradient.
 GradGradGradGradGradGradGradGradGradGradGradGradGradGradGradGradGradGrad

 Leave Link  103 at Wed Feb 28 21:00:04 2024, MaxMem=  2147483648 cpu:               2.3 elap:               0.1
 (Enter /software/gaussian-16RevA.03-el7-x86_64/g16/l202.exe)
                          Input orientation:                          
 ---------------------------------------------------------------------
 Center     Atomic      Atomic             Coordinates (Angstroms)
 Number     Number       Type             X           Y           Z
 ---------------------------------------------------------------------
      1          6           0       -3.187796    0.256066    0.216662
      2          7           0       -1.750510    0.146969    0.123305
      3          6           0       -1.093265   -1.027458   -0.238980
      4          8           0       -1.637454   -2.069402   -0.507941
      5          6           0        0.365365   -0.703320   -0.215041
      6          6           0        1.467016   -1.497565   -0.489687
      7          6           0        2.730816   -0.903102   -0.380222
      8          6           0        2.868387    0.438551   -0.008174
      9          6           0        1.746757    1.231449    0.267207
     10          6           0        0.502353    0.632281    0.155455
     11          6           0       -0.864387    1.194906    0.377870
     12          8           0       -1.177532    2.311299    0.708322
     13          1           0       -3.654059    0.111863   -0.771297
     14          1           0       -3.584624   -0.498066    0.914486
     15          1           0       -3.424115    1.262815    0.589246
     16          1           0        1.352418   -2.544892   -0.779554
     17          1           0        3.625500   -1.495955   -0.588626
     18          1           0        3.868449    0.873662    0.068518
     19          1           0        1.846682    2.279896    0.558452
 ---------------------------------------------------------------------
                    Distance matrix (angstroms):
                    1          2          3          4          5
     1  C    0.000000
     2  N    1.444441   0.000000
     3  C    2.498420   1.393736   0.000000
     4  O    2.887285   2.307283   1.205873   0.000000
     5  C    3.705637   2.305297   1.494403   2.441978   0.000000
     6  C    5.024085   3.665068   2.615128   3.156750   1.385601
     7  C    6.060521   4.630169   3.828709   4.523091   2.379612
     8  C    6.063103   4.629959   4.230502   5.180947   2.758947
     9  C    5.030283   3.664380   3.663962   4.790549   2.425725
    10  C    3.709783   2.304767   2.335875   3.509696   1.392790
    11  C    2.511103   1.395775   2.317712   3.469582   2.338182
    12  O    2.916655   2.314059   3.471567   4.569613   3.510136
    13  H    1.101934   2.103579   2.852907   2.982275   4.138806
    14  H    1.101428   2.099050   2.795999   2.878171   4.113438
    15  H    1.099185   2.064744   3.371078   3.936959   4.344275
    16  H    5.426911   4.205881   2.928514   3.039605   2.164333
    17  H    7.080895   5.666351   4.754839   5.294719   3.375843
    18  H    7.084771   5.666020   5.322352   6.269682   3.852127
    19  H    5.436790   4.204583   4.496419   5.673870   3.419382
                    6          7          8          9         10
     6  C    0.000000
     7  C    1.400913   0.000000
     8  C    2.438081   1.399064   0.000000
     9  C    2.845815   2.438000   1.400920   0.000000
    10  C    2.425495   2.758695   2.379585   1.385652   0.000000
    11  C    3.665718   4.231054   3.828146   2.613743   1.494655
    12  O    4.789186   5.176145   4.515530   3.148352   2.438601
    13  H    5.375404   6.476860   6.575058   5.612556   4.290160
    14  H    5.337581   6.459497   6.585584   5.642147   4.307806
    15  H    5.718999   6.596532   6.374316   5.180986   4.000362
    16  H    1.092726   2.180579   3.434258   3.938524   3.419252
    17  H    2.160751   1.093329   2.156956   3.420652   3.851895
    18  H    3.420701   2.156958   1.093310   2.160802   3.375859
    19  H    3.938522   3.434280   2.180711   1.092726   2.164315
                   11         12         13         14         15
    11  C    0.000000
    12  O    1.205650   0.000000
    13  H    3.205595   3.627669   0.000000
    14  H    3.248661   3.705284   1.794073   0.000000
    15  H    2.569338   2.482062   1.796842   1.797845   0.000000
    16  H    4.498882   5.674241   5.667736   5.606572   6.259993
    17  H    5.322963   6.264692   7.457240   7.432431   7.661284
    18  H    4.753802   5.285648   7.607481   7.625327   7.321482
    19  H    2.925698   3.028088   6.060260   6.110885   5.368119
                   16         17         18         19
    16  H    0.000000
    17  H    2.510703   0.000000
    18  H    4.328528   2.471022   0.000000
    19  H    5.031217   4.328630   2.510990   0.000000
 Symmetry turned off by external request.
 Stoichiometry    C9H7NO2
 Framework group  C1[X(C9H7NO2)]
 Deg. of freedom    51
 Full point group                 C1      NOp   1
 Rotational constants (GHZ):           1.7409645           0.8647836           0.5799340
 Leave Link  202 at Wed Feb 28 21:00:04 2024, MaxMem=  2147483648 cpu:               1.2 elap:               0.1
 (Enter /software/gaussian-16RevA.03-el7-x86_64/g16/l301.exe)
 Standard basis: def2SVPP (5D, 7F)
 Ernie: Thresh=  0.10000D-02 Tol=  0.10000D-05 Strict=F.
   182 basis functions,   328 primitive gaussians,   194 cartesian basis functions
    42 alpha electrons       42 beta electrons
       nuclear repulsion energy       656.4694192449 Hartrees.
 IExCor= 4639 DFT=T Ex+Corr=wB97XD ExCW=0 ScaHFX=  1.000000
 ScaDFX=  1.000000  1.000000  1.000000  1.000000 ScalE2=  1.000000  1.000000
 IRadAn=      5 IRanWt=     -1 IRanGd=            0 ICorTp=0 IEmpDi=121
 HFx  wShort=  0.000000 wLong=  0.200000 cFull=  0.222036 cShort=  0.000000 cLong=  0.777964
 DFx  wShort=  0.000000 wLong=  0.200000 cFull=  0.000000 cShort=  0.000000 cLong=  1.000000
 NAtoms=   19 NActive=   19 NUniq=   19 SFac= 1.00D+00 NAtFMM=   60 NAOKFM=F Big=F
 Integral buffers will be    131072 words long.
 Raffenetti 2 integral format.
 Two-electron integral symmetry is turned off.
 R6Disp:  Grimme-D2 Dispersion energy=       -0.0100153438 Hartrees.
 Nuclear repulsion after empirical dispersion term =      656.4594039011 Hartrees.
 Force inversion solution in PCM.
 ------------------------------------------------------------------------------
 Polarizable Continuum Model (PCM)
 =================================
 Model                : PCM.
 Atomic radii         : UFF (Universal Force Field).
 Polarization charges : Total charges.
 Charge compensation  : None.
 Solution method      : Matrix inversion.
 Cavity type          : Scaled VdW (van der Waals Surface) (Alpha=1.100).
 Cavity algorithm     : GePol (No added spheres)
                        Default sphere list used, NSphG=   19.
                        Lebedev-Laikov grids with approx.  5.0 points / Ang**2.
                        Smoothing algorithm: York/Karplus (Gamma=1.0000).
                        Polarization charges: spherical gaussians, with
                                              point-specific exponents (IZeta= 3).
                        Self-potential: point-specific (ISelfS= 7).
                        Self-field    : sphere-specific E.n sum rule (ISelfD= 2).
 1st derivatives      : Analytical E(r).r(x)/FMM algorithm (CHGder, D1EAlg=3).
                        Cavity 1st derivative terms included.
 Solvent              : TetraHydroFuran, Eps=   7.425700 Eps(inf)=   1.974025
 ------------------------------------------------------------------------------
 Spheres list:
 ISph  on   Nord     Re0    Alpha      Xe            Ye            Ze
    1   C      1    1.9255  1.100     -3.187796      0.256066      0.216662
    2   N      2    1.8300  1.100     -1.750510      0.146969      0.123305
    3   C      3    1.9255  1.100     -1.093265     -1.027458     -0.238980
    4   O      4    1.7500  1.100     -1.637454     -2.069402     -0.507941
    5   C      5    1.9255  1.100      0.365365     -0.703320     -0.215041
    6   C      6    1.9255  1.100      1.467016     -1.497565     -0.489687
    7   C      7    1.9255  1.100      2.730816     -0.903102     -0.380222
    8   C      8    1.9255  1.100      2.868387      0.438551     -0.008174
    9   C      9    1.9255  1.100      1.746757      1.231449      0.267207
   10   C     10    1.9255  1.100      0.502353      0.632281      0.155455
   11   C     11    1.9255  1.100     -0.864387      1.194906      0.377870
   12   O     12    1.7500  1.100     -1.177532      2.311299      0.708322
   13   H     13    1.4430  1.100     -3.654059      0.111863     -0.771297
   14   H     14    1.4430  1.100     -3.584624     -0.498066      0.914486
   15   H     15    1.4430  1.100     -3.424115      1.262815      0.589246
   16   H     16    1.4430  1.100      1.352418     -2.544892     -0.779554
   17   H     17    1.4430  1.100      3.625500     -1.495955     -0.588626
   18   H     18    1.4430  1.100      3.868449      0.873662      0.068518
   19   H     19    1.4430  1.100      1.846682      2.279896      0.558452
 ------------------------------------------------------------------------------
 GePol: Number of generator spheres                  =      19
 GePol: Total number of spheres                      =      19
 GePol: Number of exposed spheres                    =      19 (100.00%)
 GePol: Number of points                             =    1663
 GePol: Average weight of points                     =       0.13
 GePol: Minimum weight of points                     =   0.33D-10
 GePol: Maximum weight of points                     =    0.20577
 GePol: Number of points with low weight             =     102
 GePol: Fraction of low-weight points (<1% of avg)   =       6.13%
 GePol: Cavity surface area                          =    216.112 Ang**2
 GePol: Cavity volume                                =    219.148 Ang**3
 Leave Link  301 at Wed Feb 28 21:00:04 2024, MaxMem=  2147483648 cpu:               1.7 elap:               0.1
 (Enter /software/gaussian-16RevA.03-el7-x86_64/g16/l302.exe)
 NPDir=0 NMtPBC=     1 NCelOv=     1 NCel=       1 NClECP=     1 NCelD=      1
         NCelK=      1 NCelE2=     1 NClLst=     1 CellRange=     0.0.
 One-electron integrals computed using PRISM.
   1 Symmetry operations used in ECPInt.
 ECPInt:  NShTT=    3741 NPrTT=   15055 LenC2=    3665 LenP2D=   11024.
 LDataN:  DoStor=T MaxTD1= 4 Len=   56
 NBasis=   182 RedAO= T EigKep=  2.79D-04  NBF=   182
 NBsUse=   182 1.00D-06 EigRej= -1.00D+00 NBFU=   182
 Precomputing XC quadrature grid using
 IXCGrd= 4 IRadAn=           5 IRanWt=          -1 IRanGd=           0 AccXCQ= 0.00D+00.
 Generated NRdTot=       0 NPtTot=           0 NUsed=           0 NTot=          32
 NSgBfM=   193   193   193   193   193 MxSgAt=    19 MxSgA2=    19.
 Leave Link  302 at Wed Feb 28 21:00:05 2024, MaxMem=  2147483648 cpu:               7.3 elap:               0.3
 (Enter /software/gaussian-16RevA.03-el7-x86_64/g16/l303.exe)
 DipDrv:  MaxL=1.
 Leave Link  303 at Wed Feb 28 21:00:05 2024, MaxMem=  2147483648 cpu:               1.6 elap:               0.1
 (Enter /software/gaussian-16RevA.03-el7-x86_64/g16/l401.exe)
 Initial guess from the checkpoint file:  "NMPHTH-cavity-in-THF-wB97XD.chk"
 B after Tr=    -0.001001   -0.000665    0.000491
         Rot=    0.999997    0.002217   -0.000216   -0.000246 Ang=   0.26 deg.
 Guess basis will be translated and rotated to current coordinates.
 JPrj=2 DoOrth=T DoCkMO=T.
 Generating alternative initial guess.
 ExpMin= 1.22D-01 ExpMax= 2.27D+03 ExpMxC= 3.41D+02 IAcc=2 IRadAn=         4 AccDes= 0.00D+00
 Harris functional with IExCor= 4639 and IRadAn=       4 diagonalized for initial guess.
 HarFok:  IExCor= 4639 AccDes= 0.00D+00 IRadAn=         4 IDoV= 1 UseB2=F ITyADJ=14
 ICtDFT=  3500011 ScaDFX=  1.000000  1.000000  1.000000  1.000000
 FoFCou: FMM=F IPFlag=           0 FMFlag=      100000 FMFlg1=           0
         NFxFlg=           0 DoJE=T BraDBF=F KetDBF=T FulRan=T
         wScrn=  0.000000 ICntrl=       500 IOpCl=  0 I1Cent=   200000004 NGrid=           0
         NMat0=    1 NMatS0=      1 NMatT0=    0 NMatD0=    1 NMtDS0=    0 NMtDT0=    0
 Symmetry not used in FoFCou.
 Harris En= -528.820374002861    
 Leave Link  401 at Wed Feb 28 21:00:05 2024, MaxMem=  2147483648 cpu:               8.8 elap:               0.3
 (Enter /software/gaussian-16RevA.03-el7-x86_64/g16/l502.exe)
 Two-electron integral symmetry not used.
 Closed shell SCF:
 Using DIIS extrapolation, IDIIS=  1040.
 NGot=  2147483648 LenX=  2147401213 LenY=  2147363136
 Requested convergence on RMS density matrix=1.00D-08 within  32 cycles.
 Requested convergence on MAX density matrix=1.00D-06.
 Requested convergence on             energy=1.00D-06.
 No special actions if energy rises.
 Fock matrices will be formed incrementally for  20 cycles.

 Cycle   1  Pass 1  IDiag  1:
 FoFJK:  IHMeth= 1 ICntrl=       0 DoSepK=T KAlg= 0 I1Cent=           0 FoldK=F
 IRaf=         1 NMat=       1 IRICut=       1 DoRegI=T DoRafI=F ISym2E= 0 IDoP0=0 IntGTp=1.
 FoFCou: FMM=F IPFlag=           0 FMFlag=      100000 FMFlg1=           0
         NFxFlg=           0 DoJE=T BraDBF=F KetDBF=F FulRan=T
         wScrn=  0.000000 ICntrl=       500 IOpCl=  0 I1Cent=           0 NGrid=           0
         NMat0=    1 NMatS0=      1 NMatT0=    0 NMatD0=    1 NMtDS0=    0 NMtDT0=    0
 Symmetry not used in FoFCou.
 Inv3:  Mode=1 IEnd=     8296707.
 Iteration    1 A*A^-1 deviation from unit magnitude is 3.55D-15 for      5.
 Iteration    1 A*A^-1 deviation from orthogonality  is 1.89D-15 for   1498     36.
 Iteration    1 A^-1*A deviation from unit magnitude is 3.11D-15 for    200.
 Iteration    1 A^-1*A deviation from orthogonality  is 1.78D-15 for   1564    476.
 E= -551.819841004408    
 DIIS: error= 2.84D-03 at cycle   1 NSaved=   1.
 NSaved= 1 IEnMin= 1 EnMin= -551.819841004408     IErMin= 1 ErrMin= 2.84D-03
 ErrMax= 2.84D-03  0.00D+00 EMaxC= 1.00D-01 BMatC= 4.77D-04 BMatP= 4.77D-04
 IDIUse=3 WtCom= 9.72D-01 WtEn= 2.84D-02
 Coeff-Com:  0.100D+01
 Coeff-En:   0.100D+01
 Coeff:      0.100D+01
 Gap=     0.823 Goal=   None    Shift=    0.000
 GapD=    0.823 DampG=2.000 DampE=1.000 DampFc=2.0000 IDamp=-1.
 RMSDP=1.91D-04 MaxDP=9.39D-03              OVMax= 9.59D-03

 Cycle   2  Pass 1  IDiag  1:
 RMSU=  1.90D-04    CP:  1.00D+00
 E= -551.820824099187     Delta-E=       -0.000983094779 Rises=F Damp=F
 DIIS: error= 5.99D-04 at cycle   2 NSaved=   2.
 NSaved= 2 IEnMin= 2 EnMin= -551.820824099187     IErMin= 2 ErrMin= 5.99D-04
 ErrMax= 5.99D-04  0.00D+00 EMaxC= 1.00D-01 BMatC= 2.97D-05 BMatP= 4.77D-04
 IDIUse=3 WtCom= 9.94D-01 WtEn= 5.99D-03
 Coeff-Com: -0.210D+00 0.121D+01
 Coeff-En:   0.000D+00 0.100D+01
 Coeff:     -0.209D+00 0.121D+01
 Gap=     0.328 Goal=   None    Shift=    0.000
 RMSDP=6.85D-05 MaxDP=2.64D-03 DE=-9.83D-04 OVMax= 3.89D-03

 Cycle   3  Pass 1  IDiag  1:
 RMSU=  5.25D-05    CP:  1.00D+00  1.23D+00
 E= -551.820876481914     Delta-E=       -0.000052382727 Rises=F Damp=F
 DIIS: error= 3.82D-04 at cycle   3 NSaved=   3.
 NSaved= 3 IEnMin= 3 EnMin= -551.820876481914     IErMin= 3 ErrMin= 3.82D-04
 ErrMax= 3.82D-04  0.00D+00 EMaxC= 1.00D-01 BMatC= 2.50D-05 BMatP= 2.97D-05
 IDIUse=3 WtCom= 9.96D-01 WtEn= 3.82D-03
 Coeff-Com: -0.153D+00 0.703D+00 0.450D+00
 Coeff-En:   0.000D+00 0.000D+00 0.100D+01
 Coeff:     -0.153D+00 0.701D+00 0.452D+00
 Gap=     0.328 Goal=   None    Shift=    0.000
 RMSDP=2.65D-05 MaxDP=7.21D-04 DE=-5.24D-05 OVMax= 1.23D-03

 Cycle   4  Pass 1  IDiag  1:
 RMSU=  2.13D-05    CP:  1.00D+00  1.27D+00  7.39D-01
 E= -551.820896092543     Delta-E=       -0.000019610629 Rises=F Damp=F
 DIIS: error= 4.99D-05 at cycle   4 NSaved=   4.
 NSaved= 4 IEnMin= 4 EnMin= -551.820896092543     IErMin= 4 ErrMin= 4.99D-05
 ErrMax= 4.99D-05  0.00D+00 EMaxC= 1.00D-01 BMatC= 3.74D-07 BMatP= 2.50D-05
 IDIUse=1 WtCom= 1.00D+00 WtEn= 0.00D+00
 Coeff-Com:  0.777D-02-0.706D-01 0.621D-01 0.100D+01
 Coeff:      0.777D-02-0.706D-01 0.621D-01 0.100D+01
 Gap=     0.328 Goal=   None    Shift=    0.000
 RMSDP=8.13D-06 MaxDP=2.63D-04 DE=-1.96D-05 OVMax= 3.00D-04

 Cycle   5  Pass 1  IDiag  1:
 RMSU=  3.93D-06    CP:  1.00D+00  1.28D+00  8.57D-01  1.14D+00
 E= -551.820896626796     Delta-E=       -0.000000534253 Rises=F Damp=F
 DIIS: error= 1.12D-05 at cycle   5 NSaved=   5.
 NSaved= 5 IEnMin= 5 EnMin= -551.820896626796     IErMin= 5 ErrMin= 1.12D-05
 ErrMax= 1.12D-05  0.00D+00 EMaxC= 1.00D-01 BMatC= 2.88D-08 BMatP= 3.74D-07
 IDIUse=1 WtCom= 1.00D+00 WtEn= 0.00D+00
 Coeff-Com:  0.108D-01-0.613D-01-0.261D-02 0.308D+00 0.745D+00
 Coeff:      0.108D-01-0.613D-01-0.261D-02 0.308D+00 0.745D+00
 Gap=     0.328 Goal=   None    Shift=    0.000
 RMSDP=1.90D-06 MaxDP=4.79D-05 DE=-5.34D-07 OVMax= 5.41D-05

 Cycle   6  Pass 1  IDiag  1:
 RMSU=  1.12D-06    CP:  1.00D+00  1.28D+00  8.80D-01  1.18D+00  8.93D-01
 E= -551.820896661469     Delta-E=       -0.000000034673 Rises=F Damp=F
 DIIS: error= 3.05D-06 at cycle   6 NSaved=   6.
 NSaved= 6 IEnMin= 6 EnMin= -551.820896661469     IErMin= 6 ErrMin= 3.05D-06
 ErrMax= 3.05D-06  0.00D+00 EMaxC= 1.00D-01 BMatC= 2.22D-09 BMatP= 2.88D-08
 IDIUse=1 WtCom= 1.00D+00 WtEn= 0.00D+00
 Coeff-Com:  0.268D-02-0.135D-01-0.578D-02 0.229D-01 0.224D+00 0.770D+00
 Coeff:      0.268D-02-0.135D-01-0.578D-02 0.229D-01 0.224D+00 0.770D+00
 Gap=     0.328 Goal=   None    Shift=    0.000
 RMSDP=5.00D-07 MaxDP=1.12D-05 DE=-3.47D-08 OVMax= 1.81D-05

 Cycle   7  Pass 1  IDiag  1:
 RMSU=  3.16D-07    CP:  1.00D+00  1.28D+00  8.83D-01  1.19D+00  9.59D-01
                    CP:  9.97D-01
 E= -551.820896664203     Delta-E=       -0.000000002734 Rises=F Damp=F
 DIIS: error= 1.09D-06 at cycle   7 NSaved=   7.
 NSaved= 7 IEnMin= 7 EnMin= -551.820896664203     IErMin= 7 ErrMin= 1.09D-06
 ErrMax= 1.09D-06  0.00D+00 EMaxC= 1.00D-01 BMatC= 2.84D-10 BMatP= 2.22D-09
 IDIUse=1 WtCom= 1.00D+00 WtEn= 0.00D+00
 Coeff-Com: -0.693D-04 0.104D-02-0.203D-02-0.214D-01 0.609D-02 0.282D+00
 Coeff-Com:  0.735D+00
 Coeff:     -0.693D-04 0.104D-02-0.203D-02-0.214D-01 0.609D-02 0.282D+00
 Coeff:      0.735D+00
 Gap=     0.328 Goal=   None    Shift=    0.000
 RMSDP=1.61D-07 MaxDP=3.30D-06 DE=-2.73D-09 OVMax= 5.39D-06

 Cycle   8  Pass 1  IDiag  1:
 RMSU=  9.90D-08    CP:  1.00D+00  1.28D+00  8.84D-01  1.19D+00  9.73D-01
                    CP:  1.08D+00  9.41D-01
 E= -551.820896664560     Delta-E=       -0.000000000357 Rises=F Damp=F
 DIIS: error= 2.63D-07 at cycle   8 NSaved=   8.
 NSaved= 8 IEnMin= 8 EnMin= -551.820896664560     IErMin= 8 ErrMin= 2.63D-07
 ErrMax= 2.63D-07  0.00D+00 EMaxC= 1.00D-01 BMatC= 2.65D-11 BMatP= 2.84D-10
 IDIUse=1 WtCom= 1.00D+00 WtEn= 0.00D+00
 Coeff-Com: -0.202D-03 0.127D-02-0.332D-03-0.914D-02-0.134D-01 0.481D-01
 Coeff-Com:  0.263D+00 0.711D+00
 Coeff:     -0.202D-03 0.127D-02-0.332D-03-0.914D-02-0.134D-01 0.481D-01
 Coeff:      0.263D+00 0.711D+00
 Gap=     0.328 Goal=   None    Shift=    0.000
 RMSDP=5.27D-08 MaxDP=9.46D-07 DE=-3.57D-10 OVMax= 2.72D-06

 Cycle   9  Pass 1  IDiag  1:
 RMSU=  3.89D-08    CP:  1.00D+00  1.28D+00  8.84D-01  1.19D+00  9.76D-01
                    CP:  1.10D+00  1.02D+00  1.03D+00
 E= -551.820896664606     Delta-E=       -0.000000000046 Rises=F Damp=F
 DIIS: error= 1.45D-07 at cycle   9 NSaved=   9.
 NSaved= 9 IEnMin= 9 EnMin= -551.820896664606     IErMin= 9 ErrMin= 1.45D-07
 ErrMax= 1.45D-07  0.00D+00 EMaxC= 1.00D-01 BMatC= 5.42D-12 BMatP= 2.65D-11
 IDIUse=1 WtCom= 1.00D+00 WtEn= 0.00D+00
 Coeff-Com: -0.669D-04 0.297D-03 0.292D-03 0.655D-03-0.636D-02-0.374D-01
 Coeff-Com: -0.446D-01 0.266D+00 0.821D+00
 Coeff:     -0.669D-04 0.297D-03 0.292D-03 0.655D-03-0.636D-02-0.374D-01
 Coeff:     -0.446D-01 0.266D+00 0.821D+00
 Gap=     0.328 Goal=   None    Shift=    0.000
 RMSDP=3.05D-08 MaxDP=6.74D-07 DE=-4.60D-11 OVMax= 2.07D-06

 Cycle  10  Pass 1  IDiag  1:
 RMSU=  1.71D-08    CP:  1.00D+00  1.28D+00  8.84D-01  1.19D+00  9.77D-01
                    CP:  1.11D+00  1.05D+00  1.21D+00  1.14D+00
 E= -551.820896664618     Delta-E=       -0.000000000012 Rises=F Damp=F
 DIIS: error= 6.71D-08 at cycle  10 NSaved=  10.
 NSaved=10 IEnMin=10 EnMin= -551.820896664618     IErMin=10 ErrMin= 6.71D-08
 ErrMax= 6.71D-08  0.00D+00 EMaxC= 1.00D-01 BMatC= 9.15D-13 BMatP= 5.42D-12
 IDIUse=1 WtCom= 1.00D+00 WtEn= 0.00D+00
 Coeff-Com:  0.161D-04-0.143D-03 0.168D-03 0.199D-02 0.435D-03-0.222D-01
 Coeff-Com: -0.648D-01-0.506D-01 0.268D+00 0.867D+00
 Coeff:      0.161D-04-0.143D-03 0.168D-03 0.199D-02 0.435D-03-0.222D-01
 Coeff:     -0.648D-01-0.506D-01 0.268D+00 0.867D+00
 Gap=     0.328 Goal=   None    Shift=    0.000
 RMSDP=1.53D-08 MaxDP=4.04D-07 DE=-1.18D-11 OVMax= 1.20D-06

 Cycle  11  Pass 1  IDiag  1:
 RMSU=  7.60D-09    CP:  1.00D+00  1.28D+00  8.84D-01  1.19D+00  9.78D-01
                    CP:  1.11D+00  1.07D+00  1.29D+00  1.36D+00  1.15D+00
 E= -551.820896664621     Delta-E=       -0.000000000003 Rises=F Damp=F
 DIIS: error= 2.35D-08 at cycle  11 NSaved=  11.
 NSaved=11 IEnMin=11 EnMin= -551.820896664621     IErMin=11 ErrMin= 2.35D-08
 ErrMax= 2.35D-08  0.00D+00 EMaxC= 1.00D-01 BMatC= 1.72D-13 BMatP= 9.15D-13
 IDIUse=1 WtCom= 1.00D+00 WtEn= 0.00D+00
 Coeff-Com:  0.173D-04-0.105D-03 0.155D-04 0.665D-03 0.120D-02-0.246D-02
 Coeff-Com: -0.167D-01-0.621D-01-0.319D-01 0.326D+00 0.785D+00
 Coeff:      0.173D-04-0.105D-03 0.155D-04 0.665D-03 0.120D-02-0.246D-02
 Coeff:     -0.167D-01-0.621D-01-0.319D-01 0.326D+00 0.785D+00
 Gap=     0.328 Goal=   None    Shift=    0.000
 RMSDP=5.77D-09 MaxDP=1.62D-07 DE=-3.30D-12 OVMax= 4.52D-07

 Error on total polarization charges =  0.00670
 SCF Done:  E(RwB97XD) =  -551.820896665     A.U. after   11 cycles
            NFock= 11  Conv=0.58D-08     -V/T= 2.0094
 KE= 5.466556768869D+02 PE=-2.597260995492D+03 EE= 8.423250180391D+02
 Leave Link  502 at Wed Feb 28 21:00:16 2024, MaxMem=  2147483648 cpu:             284.6 elap:              10.4
 (Enter /software/gaussian-16RevA.03-el7-x86_64/g16/l508.exe)
 QCSCF skips out because SCF is already converged.
 Leave Link  508 at Wed Feb 28 21:00:16 2024, MaxMem=  2147483648 cpu:               1.3 elap:               0.1
 (Enter /software/gaussian-16RevA.03-el7-x86_64/g16/l801.exe)
 DoSCS=F DFT=T ScalE2(SS,OS)=  1.000000  1.000000
 Range of M.O.s used for correlation:     1   182
 NBasis=   182 NAE=    42 NBE=    42 NFC=     0 NFV=     0
 NROrb=    182 NOA=    42 NOB=    42 NVA=   140 NVB=   140

 **** Warning!!: The largest alpha MO coefficient is  0.16795255D+02

 Leave Link  801 at Wed Feb 28 21:00:16 2024, MaxMem=  2147483648 cpu:               0.6 elap:               0.0
 (Enter /software/gaussian-16RevA.03-el7-x86_64/g16/l1101.exe)
 Leave Link 1101 at Wed Feb 28 21:00:16 2024, MaxMem=  2147483648 cpu:               1.2 elap:               0.1
 (Enter /software/gaussian-16RevA.03-el7-x86_64/g16/l1102.exe)
 Symmetrizing basis deriv contribution to polar:
 IMax=3 JMax=2 DiffMx= 0.00D+00
 Leave Link 1102 at Wed Feb 28 21:00:16 2024, MaxMem=  2147483648 cpu:               1.0 elap:               0.1
 (Enter /software/gaussian-16RevA.03-el7-x86_64/g16/l1110.exe)
 Leave Link 1110 at Wed Feb 28 21:00:16 2024, MaxMem=  2147483648 cpu:               1.2 elap:               0.1
 (Enter /software/gaussian-16RevA.03-el7-x86_64/g16/l1002.exe)
 Minotr:  Closed shell wavefunction.
 Leave Link 1002 at Wed Feb 28 21:00:16 2024, MaxMem=  2147483648 cpu:               0.7 elap:               0.1
 (Enter /software/gaussian-16RevA.03-el7-x86_64/g16/l701.exe)
 ... and contract with generalized density number  0.
 Compute integral first derivatives.
 R6Disp: Adding Grimme-D2 dispersion energy 1st derivatives to the gradient.
   1 Symmetry operations used in ECPInt.
 ECPInt:  NShTT=    3741 NPrTT=   15055 LenC2=    3665 LenP2D=   11024.
 LDataN:  DoStor=T MaxTD1= 5 Len=  102
 D1PCM: PCM CHGder 1st derivatives, ID1Alg=3 FixD1E=F DoIter=F DoCFld=F I1PDM=0.
 GePol: Maximum number of non-zero 1st derivatives   =     214
 Leave Link  701 at Wed Feb 28 21:00:17 2024, MaxMem=  2147483648 cpu:              20.8 elap:               0.8
 (Enter /software/gaussian-16RevA.03-el7-x86_64/g16/l702.exe)
 L702 exits ... SP integral derivatives will be done elsewhere.
 Leave Link  702 at Wed Feb 28 21:00:17 2024, MaxMem=  2147483648 cpu:               0.5 elap:               0.0
 (Enter /software/gaussian-16RevA.03-el7-x86_64/g16/l703.exe)
 Integral derivatives from FoFJK, PRISM(SPDF).
 Compute integral first derivatives, UseDBF=F ICtDFT=           0.
 Calling FoFJK, ICntrl=      2127 FMM=F ISym2X=0 I1Cent= 0 IOpClX= 0 NMat=1 NMatS=1 NMatT=0.
 FoFJK:  IHMeth= 1 ICntrl=    2127 DoSepK=T KAlg= 0 I1Cent=           0 FoldK=F
 IRaf=         1 NMat=       1 IRICut=       1 DoRegI=T DoRafI=F ISym2E= 0 IDoP0=0 IntGTp=1.
 FoFCou: FMM=F IPFlag=           0 FMFlag=      100000 FMFlg1=         800
         NFxFlg=           0 DoJE=F BraDBF=F KetDBF=F FulRan=T
         wScrn=  0.000000 ICntrl=      2527 IOpCl=  0 I1Cent=           0 NGrid=           0
         NMat0=    1 NMatS0=      1 NMatT0=    0 NMatD0=    1 NMtDS0=    0 NMtDT0=    0
 Symmetry not used in FoFCou.
 Leave Link  703 at Wed Feb 28 21:00:19 2024, MaxMem=  2147483648 cpu:              53.5 elap:               2.0
 (Enter /software/gaussian-16RevA.03-el7-x86_64/g16/l716.exe)
 Dipole        = 1.11489848D+00-8.17358429D-02-7.45600892D-02
 Polarizability= 0.00000000D+00 0.00000000D+00 0.00000000D+00
                 0.00000000D+00 0.00000000D+00 0.00000000D+00
 -------------------------------------------------------------------
 Center     Atomic                   Forces (Hartrees/Bohr)
 Number     Number              X              Y              Z
 -------------------------------------------------------------------
      1        6           0.000040448    0.000092120    0.000143154
      2        7          -0.000140060   -0.000084558   -0.000001216
      3        6          -0.000156203   -0.000191475   -0.000094237
      4        8           0.000007475   -0.000032016   -0.000035291
      5        6           0.000219016    0.000051172    0.000032927
      6        6           0.000001688   -0.000008976    0.000004465
      7        6          -0.000000562   -0.000029799   -0.000013413
      8        6           0.000005209    0.000033382    0.000009556
      9        6           0.000000123    0.000007573    0.000002346
     10        6           0.000199317   -0.000089863   -0.000029313
     11        6          -0.000067829    0.000235205    0.000070758
     12        8          -0.000030660    0.000004690    0.000006236
     13        1          -0.000011501   -0.000031901   -0.000007405
     14        1           0.000040032    0.000029884   -0.000033442
     15        1          -0.000079015    0.000003554   -0.000054785
     16        1           0.000000815    0.000025324    0.000005878
     17        1          -0.000010719    0.000009628   -0.000000454
     18        1          -0.000012933   -0.000002260   -0.000001185
     19        1          -0.000004640   -0.000021685   -0.000004580
 -------------------------------------------------------------------
 Cartesian Forces:  Max     0.000235205 RMS     0.000074225
 Leave Link  716 at Wed Feb 28 21:00:19 2024, MaxMem=  2147483648 cpu:               0.8 elap:               0.1
 (Enter /software/gaussian-16RevA.03-el7-x86_64/g16/l103.exe)

 GradGradGradGradGradGradGradGradGradGradGradGradGradGradGradGradGradGrad
 Berny optimization.
 Using GEDIIS/GDIIS optimizer.
 FormGI is forming the generalized inverse of G from B-inverse, IUseBI=4.
 Internal  Forces:  Max     0.000227868 RMS     0.000045906
 Step   3 in ReCalcFC=50 IGetFC= 0 update Hessian.
 Search for a local minimum.
 Step number   3 out of a maximum of  114
 All quantities printed in internal units (Hartrees-Bohrs-Radians)
 RMS Force = .45906D-04 SwitMx=.10000D-02 MixMth= 2
 Mixed Optimization -- En-DIIS/RFO-DIIS
 Swapping is turned off.
 Update second derivatives using D2CorX and points    1    2    3
 DE= -5.13D-05 DEPred=-5.42D-05 R= 9.46D-01
 TightC=F SS=  1.41D+00  RLast= 1.77D-01 DXNew= 8.4853D-01 5.2999D-01
 Trust test= 9.46D-01 RLast= 1.77D-01 DXMaxT set to 5.30D-01
 ITU=  1  1  0
     Eigenvalues ---   -0.00002   0.00615   0.01011   0.01486   0.01593
     Eigenvalues ---    0.01799   0.01863   0.02150   0.02428   0.02713
     Eigenvalues ---    0.03028   0.03197   0.04316   0.04936   0.06058
     Eigenvalues ---    0.06135   0.10714   0.10771   0.12098   0.12459
     Eigenvalues ---    0.13460   0.14744   0.16724   0.18423   0.18716
     Eigenvalues ---    0.19138   0.19643   0.20574   0.22271   0.24432
     Eigenvalues ---    0.25491   0.28371   0.30276   0.35370   0.35555
     Eigenvalues ---    0.35888   0.36626   0.37208   0.37487   0.37598
     Eigenvalues ---    0.38124   0.38427   0.39237   0.41170   0.42626
     Eigenvalues ---    0.43752   0.48834   0.51105   0.53847   0.86000
     Eigenvalues ---    0.87477
 Eigenvalue     1 is  -1.77D-05 should be greater than     0.000000 Eigenvector:
                          D4        D6        D2        D3        D5
   1                    0.42146   0.42046   0.41461   0.39895   0.39795
                          D1        D12       D7        A2        D11
   1                    0.39210  -0.02173   0.01969   0.01912  -0.01803
 Use linear search instead of GDIIS.
 RFO step:  Lambda=-1.38141012D-04 EMin=-1.00000000D-04
 Quartic linear search produced a step of -0.06622.
 Iteration  1 RMS(Cart)=  0.06572837 RMS(Int)=  0.14230730
 Iteration  2 RMS(Cart)=  0.06613823 RMS(Int)=  0.09311916
 Iteration  3 RMS(Cart)=  0.06617516 RMS(Int)=  0.04406796
 Iteration  4 RMS(Cart)=  0.05883083 RMS(Int)=  0.00444377
 Iteration  5 RMS(Cart)=  0.00458541 RMS(Int)=  0.00006181
 Iteration  6 RMS(Cart)=  0.00001961 RMS(Int)=  0.00006003
 Iteration  7 RMS(Cart)=  0.00000000 RMS(Int)=  0.00006003
 ITry= 1 IFail=0 DXMaxC= 1.33D+00 DCOld= 1.00D+10 DXMaxT= 5.30D-01 DXLimC= 3.00D+00 Rises=F
 Variable       Old X    -DE/DX   Delta X   Delta X   Delta X     New X
                                 (Linear)    (Quad)   (Total)
    R1        2.72960   0.00002  -0.00001   0.00034   0.00033   2.72993
    R2        2.08235   0.00002  -0.00008  -0.00364  -0.00372   2.07863
    R3        2.08140  -0.00006  -0.00002   0.00614   0.00612   2.08752
    R4        2.07716   0.00000  -0.00008   0.00145   0.00138   2.07854
    R5        2.63378   0.00018  -0.00034   0.00790   0.00760   2.64138
    R6        2.63763   0.00016  -0.00040   0.00899   0.00863   2.64626
    R7        2.27877   0.00003  -0.00005   0.00063   0.00059   2.27935
    R8        2.82401   0.00023  -0.00047   0.01101   0.01053   2.83454
    R9        2.61841  -0.00001  -0.00003   0.00072   0.00069   2.61910
   R10        2.63199   0.00002  -0.00005   0.00109   0.00100   2.63299
   R11        2.64734  -0.00001   0.00000   0.00005   0.00005   2.64739
   R12        2.06495  -0.00002  -0.00005   0.00109   0.00104   2.06599
   R13        2.64385   0.00002   0.00001  -0.00051  -0.00050   2.64335
   R14        2.06609  -0.00001  -0.00003   0.00062   0.00059   2.06669
   R15        2.64735  -0.00001   0.00000  -0.00004  -0.00004   2.64731
   R16        2.06606  -0.00001  -0.00003   0.00063   0.00060   2.06666
   R17        2.61850  -0.00001  -0.00003   0.00068   0.00065   2.61916
   R18        2.06495  -0.00002  -0.00005   0.00105   0.00100   2.06596
   R19        2.82449   0.00021  -0.00046   0.01041   0.00993   2.83442
   R20        2.27835   0.00001  -0.00003   0.00029   0.00026   2.27861
    A1        1.93179  -0.00002  -0.00043  -0.02626  -0.02667   1.90512
    A2        1.92595  -0.00005  -0.00005   0.03620   0.03625   1.96220
    A3        1.88075   0.00013   0.00028  -0.00633  -0.00614   1.87461
    A4        1.90285  -0.00000  -0.00026   0.00517   0.00509   1.90794
    A5        1.91006  -0.00005   0.00031   0.00636   0.00648   1.91654
    A6        1.91229  -0.00001   0.00017  -0.01548  -0.01531   1.89698
    A7        2.15278   0.00005   0.00012  -0.00059  -0.00075   2.15203
    A8        2.16908  -0.00005   0.00005  -0.00282  -0.00305   2.16602
    A9        1.96133   0.00001  -0.00017   0.00354   0.00326   1.96459
   A10        2.18128   0.00005   0.00024  -0.00499  -0.00479   2.17649
   A11        1.84767  -0.00004   0.00017  -0.00391  -0.00367   1.84400
   A12        2.25424  -0.00001  -0.00041   0.00890   0.00845   2.26269
   A13        2.27645  -0.00003   0.00006  -0.00119  -0.00113   2.27532
   A14        1.88416   0.00003  -0.00009   0.00214   0.00203   1.88619
   A15        2.12258  -0.00001   0.00003  -0.00095  -0.00091   2.12166
   A16        2.04714   0.00001  -0.00005   0.00106   0.00101   2.04814
   A17        2.11600  -0.00001   0.00002  -0.00038  -0.00036   2.11564
   A18        2.12005  -0.00000   0.00003  -0.00068  -0.00065   2.11940
   A19        2.11345  -0.00000   0.00001  -0.00020  -0.00019   2.11326
   A20        2.08660   0.00000   0.00000  -0.00015  -0.00014   2.08646
   A21        2.08314   0.00000  -0.00002   0.00035   0.00033   2.08347
   A22        2.11333  -0.00000   0.00001  -0.00027  -0.00027   2.11306
   A23        2.08317   0.00000  -0.00002   0.00041   0.00039   2.08356
   A24        2.08669   0.00000   0.00001  -0.00013  -0.00013   2.08657
   A25        2.04703   0.00001  -0.00005   0.00095   0.00090   2.04793
   A26        2.12026  -0.00000   0.00004  -0.00070  -0.00066   2.11959
   A27        2.11590  -0.00000   0.00001  -0.00025  -0.00024   2.11566
   A28        2.12285  -0.00000   0.00004  -0.00058  -0.00054   2.12231
   A29        1.88664   0.00002  -0.00011   0.00214   0.00202   1.88866
   A30        2.27370  -0.00002   0.00007  -0.00156  -0.00149   2.27221
   A31        1.84499  -0.00002   0.00020  -0.00391  -0.00365   1.84134
   A32        2.18990  -0.00002   0.00020  -0.00548  -0.00532   2.18458
   A33        2.24829   0.00004  -0.00040   0.00939   0.00895   2.25725
    D1       -1.12364   0.00005   0.00491   0.74085   0.74594  -0.37770
    D2        2.01394   0.00005   0.00517   0.78295   0.78824   2.80218
    D3        0.98427  -0.00000   0.00427   0.75400   0.75823   1.74250
    D4       -2.16134  -0.00000   0.00453   0.79610   0.80053  -1.36081
    D5        3.07156   0.00004   0.00462   0.75232   0.75689  -2.45473
    D6       -0.07404   0.00004   0.00488   0.79442   0.79919   0.72515
    D7       -0.00346   0.00001   0.00022   0.03797   0.03823   0.03478
    D8        3.13831   0.00002   0.00021   0.03458   0.03486  -3.11001
    D9       -3.14146   0.00002  -0.00001   0.00037   0.00031  -3.14115
   D10        0.00031   0.00002  -0.00002  -0.00302  -0.00306  -0.00275
   D11       -3.13811  -0.00001  -0.00022  -0.03439  -0.03462   3.11046
   D12        0.00422  -0.00000  -0.00028  -0.04120  -0.04145  -0.03723
   D13       -0.00014  -0.00002   0.00002   0.00363   0.00366   0.00352
   D14       -3.14100  -0.00000  -0.00004  -0.00317  -0.00317   3.13902
   D15        3.14083  -0.00001   0.00005   0.00629   0.00634  -3.13601
   D16       -0.00036  -0.00001   0.00002   0.00110   0.00113   0.00077
   D17       -0.00057  -0.00000   0.00003   0.00271   0.00274   0.00217
   D18        3.14142  -0.00001   0.00001  -0.00248  -0.00247   3.13895
   D19       -3.14131  -0.00001  -0.00002  -0.00436  -0.00438   3.13750
   D20        0.00011  -0.00001  -0.00001  -0.00355  -0.00356  -0.00346
   D21       -0.00016  -0.00000   0.00001   0.00144   0.00144   0.00128
   D22        3.14125   0.00000   0.00001   0.00225   0.00226  -3.13968
   D23        3.14135   0.00000   0.00001   0.00409   0.00411  -3.13772
   D24        0.00028   0.00000  -0.00001   0.00104   0.00103   0.00130
   D25        0.00012  -0.00000  -0.00001  -0.00055  -0.00055  -0.00043
   D26       -3.14096  -0.00000  -0.00003  -0.00360  -0.00364   3.13859
   D27        0.00006   0.00000  -0.00000  -0.00091  -0.00091  -0.00085
   D28       -3.14152   0.00000  -0.00000  -0.00062  -0.00062   3.14104
   D29       -3.14135  -0.00000  -0.00001  -0.00172  -0.00173   3.14010
   D30        0.00025  -0.00000  -0.00001  -0.00143  -0.00144  -0.00119
   D31        0.00010  -0.00000  -0.00001  -0.00051  -0.00052  -0.00042
   D32        3.14157   0.00000  -0.00000  -0.00003  -0.00004   3.14153
   D33       -3.14151  -0.00000  -0.00001  -0.00080  -0.00081   3.14087
   D34       -0.00004  -0.00000  -0.00000  -0.00033  -0.00033  -0.00036
   D35       -0.00014  -0.00000   0.00001   0.00140   0.00141   0.00126
   D36        3.14143   0.00000   0.00000   0.00157   0.00157  -3.14018
   D37        3.14157  -0.00000   0.00000   0.00092   0.00092  -3.14069
   D38       -0.00004  -0.00000   0.00000   0.00109   0.00109   0.00105
   D39        0.00004   0.00000   0.00000  -0.00089  -0.00089  -0.00085
   D40        3.14099   0.00000   0.00003   0.00291   0.00295  -3.13925
   D41       -3.14154   0.00000   0.00000  -0.00105  -0.00105   3.14060
   D42       -0.00059   0.00000   0.00004   0.00275   0.00278   0.00219
   D43       -0.00009   0.00001  -0.00000  -0.00280  -0.00280  -0.00289
   D44        3.14073  -0.00000   0.00006   0.00431   0.00441  -3.13805
   D45       -3.14111   0.00001  -0.00003  -0.00620  -0.00624   3.13584
   D46       -0.00029  -0.00001   0.00003   0.00091   0.00097   0.00068
         Item               Value     Threshold  Converged?
 Maximum Force            0.000228     0.000450     YES
 RMS     Force            0.000046     0.000300     YES
 Maximum Displacement     1.329607     0.001800     NO 
 RMS     Displacement     0.248091     0.001200     NO 
 Predicted change in Energy=-1.684644D-04
 Lowest energy point so far.  Saving SCF results.
 Step   3 in ReCalcFC=50 IGetFC= 0 compute gradient.
 GradGradGradGradGradGradGradGradGradGradGradGradGradGradGradGradGradGrad

 Leave Link  103 at Wed Feb 28 21:00:19 2024, MaxMem=  2147483648 cpu:               1.5 elap:               0.1
 (Enter /software/gaussian-16RevA.03-el7-x86_64/g16/l202.exe)
                          Input orientation:                          
 ---------------------------------------------------------------------
 Center     Atomic      Atomic             Coordinates (Angstroms)
 Number     Number       Type             X           Y           Z
 ---------------------------------------------------------------------
      1          6           0       -3.188890    0.251898    0.232914
      2          7           0       -1.753114    0.151938    0.108542
      3          6           0       -1.098908   -1.005418   -0.323040
      4          8           0       -1.653315   -2.020041   -0.666622
      5          6           0        0.366063   -0.689338   -0.260747
      6          6           0        1.466869   -1.468607   -0.579920
      7          6           0        2.732823   -0.889900   -0.421522
      8          6           0        2.874031    0.423055    0.039832
      9          6           0        1.753944    1.201976    0.357950
     10          6           0        0.506862    0.618627    0.198317
     11          6           0       -0.862450    1.178663    0.445447
     12          8           0       -1.180873    2.272243    0.841189
     13          1           0       -3.660234   -0.513839   -0.400651
     14          1           0       -3.531420    0.125061    1.275448
     15          1           0       -3.480283    1.254049   -0.114352
     16          1           0        1.349785   -2.493744   -0.941359
     17          1           0        3.626240   -1.472867   -0.662375
     18          1           0        3.875713    0.847088    0.153192
     19          1           0        1.857158    2.229155    0.717757
 ---------------------------------------------------------------------
                    Distance matrix (angstroms):
                    1          2          3          4          5
     1  C    0.000000
     2  N    1.444615   0.000000
     3  C    2.501591   1.397756   0.000000
     4  O    2.885977   2.308318   1.206182   0.000000
     5  C    3.710434   2.309769   1.499976   2.452222   0.000000
     6  C    5.029606   3.669937   2.619874   3.169723   1.385967
     7  C    6.066191   4.635734   3.834736   4.536022   2.380677
     8  C    6.068409   4.635590   4.237505   5.192750   2.760012
     9  C    5.034868   3.669366   3.670844   4.800058   2.426122
    10  C    3.714065   2.309405   2.342612   3.518104   1.393319
    11  C    2.513243   1.400340   2.327379   3.477624   2.344649
    12  O    2.912718   2.315151   3.479254   4.573882   3.518272
    13  H    1.099965   2.083181   2.609227   2.523313   4.032548
    14  H    1.104668   2.127149   3.122541   3.449692   4.267730
    15  H    1.099914   2.060932   3.289330   3.789786   4.311909
    16  H    5.432959   4.210689   2.931472   3.052620   2.164907
    17  H    7.086773   5.672015   4.760323   5.307835   3.376977
    18  H    7.090079   5.671765   5.329674   6.281932   3.853517
    19  H    5.441252   4.209517   4.503781   5.682921   3.420297
                    6          7          8          9         10
     6  C    0.000000
     7  C    1.400939   0.000000
     8  C    2.437741   1.398799   0.000000
     9  C    2.845001   2.437566   1.400896   0.000000
    10  C    2.425657   2.759485   2.380515   1.385999   0.000000
    11  C    3.672212   4.237520   3.833634   2.617960   1.499910
    12  O    4.798338   5.187543   4.528125   3.161036   2.448710
    13  H    5.218324   6.404142   6.615770   5.729993   4.359580
    14  H    5.564626   6.568911   6.530341   5.471437   4.208508
    15  H    5.666032   6.579784   6.410275   5.255751   4.049549
    16  H    1.093275   2.180674   3.434206   3.938260   3.419975
    17  H    2.160949   1.093643   2.157182   3.420722   3.853006
    18  H    3.420881   2.157226   1.093628   2.160966   3.376890
    19  H    3.938240   3.434130   2.180736   1.093257   2.164928
                   11         12         13         14         15
    11  C    0.000000
    12  O    1.205787   0.000000
    13  H    3.377579   3.930859   0.000000
    14  H    2.987035   3.213105   1.798359   0.000000
    15  H    2.678079   2.690179   1.799939   1.791305   0.000000
    16  H    4.505972   5.682987   5.414118   5.966451   6.169234
    17  H    5.329748   6.276535   7.353974   7.585554   7.631452
    18  H    4.758733   5.298440   7.677849   7.526380   7.372101
    19  H    2.928131   3.040843   6.262305   5.811626   5.489217
                   16         17         18         19
    16  H    0.000000
    17  H    2.510431   0.000000
    18  H    4.328916   2.471757   0.000000
    19  H    5.031487   4.328901   2.510659   0.000000
 Symmetry turned off by external request.
 Stoichiometry    C9H7NO2
 Framework group  C1[X(C9H7NO2)]
 Deg. of freedom    51
 Full point group                 C1      NOp   1
 Rotational constants (GHZ):           1.7375373           0.8616888           0.5781690
 Leave Link  202 at Wed Feb 28 21:00:19 2024, MaxMem=  2147483648 cpu:               0.5 elap:               0.0
 (Enter /software/gaussian-16RevA.03-el7-x86_64/g16/l301.exe)
 Standard basis: def2SVPP (5D, 7F)
 Ernie: Thresh=  0.10000D-02 Tol=  0.10000D-05 Strict=F.
   182 basis functions,   328 primitive gaussians,   194 cartesian basis functions
    42 alpha electrons       42 beta electrons
       nuclear repulsion energy       655.6341289410 Hartrees.
 IExCor= 4639 DFT=T Ex+Corr=wB97XD ExCW=0 ScaHFX=  1.000000
 ScaDFX=  1.000000  1.000000  1.000000  1.000000 ScalE2=  1.000000  1.000000
 IRadAn=      5 IRanWt=     -1 IRanGd=            0 ICorTp=0 IEmpDi=121
 HFx  wShort=  0.000000 wLong=  0.200000 cFull=  0.222036 cShort=  0.000000 cLong=  0.777964
 DFx  wShort=  0.000000 wLong=  0.200000 cFull=  0.000000 cShort=  0.000000 cLong=  1.000000
 NAtoms=   19 NActive=   19 NUniq=   19 SFac= 1.00D+00 NAtFMM=   60 NAOKFM=F Big=F
 Integral buffers will be    131072 words long.
 Raffenetti 2 integral format.
 Two-electron integral symmetry is turned off.
 R6Disp:  Grimme-D2 Dispersion energy=       -0.0099902273 Hartrees.
 Nuclear repulsion after empirical dispersion term =      655.6241387137 Hartrees.
 Force inversion solution in PCM.
 ------------------------------------------------------------------------------
 Polarizable Continuum Model (PCM)
 =================================
 Model                : PCM.
 Atomic radii         : UFF (Universal Force Field).
 Polarization charges : Total charges.
 Charge compensation  : None.
 Solution method      : Matrix inversion.
 Cavity type          : Scaled VdW (van der Waals Surface) (Alpha=1.100).
 Cavity algorithm     : GePol (No added spheres)
                        Default sphere list used, NSphG=   19.
                        Lebedev-Laikov grids with approx.  5.0 points / Ang**2.
                        Smoothing algorithm: York/Karplus (Gamma=1.0000).
                        Polarization charges: spherical gaussians, with
                                              point-specific exponents (IZeta= 3).
                        Self-potential: point-specific (ISelfS= 7).
                        Self-field    : sphere-specific E.n sum rule (ISelfD= 2).
 1st derivatives      : Analytical E(r).r(x)/FMM algorithm (CHGder, D1EAlg=3).
                        Cavity 1st derivative terms included.
 Solvent              : TetraHydroFuran, Eps=   7.425700 Eps(inf)=   1.974025
 ------------------------------------------------------------------------------
 Spheres list:
 ISph  on   Nord     Re0    Alpha      Xe            Ye            Ze
    1   C      1    1.9255  1.100     -3.188890      0.251898      0.232914
    2   N      2    1.8300  1.100     -1.753114      0.151938      0.108542
    3   C      3    1.9255  1.100     -1.098908     -1.005418     -0.323040
    4   O      4    1.7500  1.100     -1.653315     -2.020041     -0.666622
    5   C      5    1.9255  1.100      0.366063     -0.689338     -0.260747
    6   C      6    1.9255  1.100      1.466869     -1.468607     -0.579920
    7   C      7    1.9255  1.100      2.732823     -0.889900     -0.421522
    8   C      8    1.9255  1.100      2.874031      0.423055      0.039832
    9   C      9    1.9255  1.100      1.753944      1.201976      0.357950
   10   C     10    1.9255  1.100      0.506862      0.618627      0.198317
   11   C     11    1.9255  1.100     -0.862450      1.178663      0.445447
   12   O     12    1.7500  1.100     -1.180873      2.272243      0.841189
   13   H     13    1.4430  1.100     -3.660234     -0.513839     -0.400651
   14   H     14    1.4430  1.100     -3.531420      0.125061      1.275448
   15   H     15    1.4430  1.100     -3.480283      1.254049     -0.114352
   16   H     16    1.4430  1.100      1.349785     -2.493744     -0.941359
   17   H     17    1.4430  1.100      3.626240     -1.472867     -0.662375
   18   H     18    1.4430  1.100      3.875713      0.847088      0.153192
   19   H     19    1.4430  1.100      1.857158      2.229155      0.717757
 ------------------------------------------------------------------------------
 GePol: Number of generator spheres                  =      19
 GePol: Total number of spheres                      =      19
 GePol: Number of exposed spheres                    =      19 (100.00%)
 GePol: Number of points                             =    1643
 GePol: Average weight of points                     =       0.13
 GePol: Minimum weight of points                     =   0.20D-11
 GePol: Maximum weight of points                     =    0.20577
 GePol: Number of points with low weight             =      87
 GePol: Fraction of low-weight points (<1% of avg)   =       5.30%
 GePol: Cavity surface area                          =    216.461 Ang**2
 GePol: Cavity volume                                =    219.959 Ang**3
 Leave Link  301 at Wed Feb 28 21:00:19 2024, MaxMem=  2147483648 cpu:               3.9 elap:               0.2
 (Enter /software/gaussian-16RevA.03-el7-x86_64/g16/l302.exe)
 NPDir=0 NMtPBC=     1 NCelOv=     1 NCel=       1 NClECP=     1 NCelD=      1
         NCelK=      1 NCelE2=     1 NClLst=     1 CellRange=     0.0.
 One-electron integrals computed using PRISM.
   1 Symmetry operations used in ECPInt.
 ECPInt:  NShTT=    3741 NPrTT=   15055 LenC2=    3665 LenP2D=   11027.
 LDataN:  DoStor=T MaxTD1= 4 Len=   56
 NBasis=   182 RedAO= T EigKep=  2.79D-04  NBF=   182
 NBsUse=   182 1.00D-06 EigRej= -1.00D+00 NBFU=   182
 Precomputing XC quadrature grid using
 IXCGrd= 4 IRadAn=           5 IRanWt=          -1 IRanGd=           0 AccXCQ= 0.00D+00.
 Generated NRdTot=       0 NPtTot=           0 NUsed=           0 NTot=          32
 NSgBfM=   193   193   193   193   193 MxSgAt=    19 MxSgA2=    19.
 Leave Link  302 at Wed Feb 28 21:00:19 2024, MaxMem=  2147483648 cpu:               6.0 elap:               0.2
 (Enter /software/gaussian-16RevA.03-el7-x86_64/g16/l303.exe)
 DipDrv:  MaxL=1.
 Leave Link  303 at Wed Feb 28 21:00:20 2024, MaxMem=  2147483648 cpu:               0.8 elap:               0.1
 (Enter /software/gaussian-16RevA.03-el7-x86_64/g16/l401.exe)
 Initial guess from the checkpoint file:  "NMPHTH-cavity-in-THF-wB97XD.chk"
 B after Tr=    -0.001669    0.002202   -0.005487
         Rot=    0.999660   -0.025879    0.002661    0.001929 Ang=  -2.99 deg.
 Guess basis will be translated and rotated to current coordinates.
 JPrj=2 DoOrth=T DoCkMO=T.
 Generating alternative initial guess.
 ExpMin= 1.22D-01 ExpMax= 2.27D+03 ExpMxC= 3.41D+02 IAcc=2 IRadAn=         4 AccDes= 0.00D+00
 Harris functional with IExCor= 4639 and IRadAn=       4 diagonalized for initial guess.
 HarFok:  IExCor= 4639 AccDes= 0.00D+00 IRadAn=         4 IDoV= 1 UseB2=F ITyADJ=14
 ICtDFT=  3500011 ScaDFX=  1.000000  1.000000  1.000000  1.000000
 FoFCou: FMM=F IPFlag=           0 FMFlag=      100000 FMFlg1=           0
         NFxFlg=           0 DoJE=T BraDBF=F KetDBF=T FulRan=T
         wScrn=  0.000000 ICntrl=       500 IOpCl=  0 I1Cent=   200000004 NGrid=           0
         NMat0=    1 NMatS0=      1 NMatT0=    0 NMatD0=    1 NMtDS0=    0 NMtDT0=    0
 Symmetry not used in FoFCou.
 Harris En= -528.822457770829    
 Leave Link  401 at Wed Feb 28 21:00:20 2024, MaxMem=  2147483648 cpu:              11.2 elap:               0.4
 (Enter /software/gaussian-16RevA.03-el7-x86_64/g16/l502.exe)
 Two-electron integral symmetry not used.
 Closed shell SCF:
 Using DIIS extrapolation, IDIIS=  1040.
 NGot=  2147483648 LenX=  2147401213 LenY=  2147363136
 Requested convergence on RMS density matrix=1.00D-08 within  32 cycles.
 Requested convergence on MAX density matrix=1.00D-06.
 Requested convergence on             energy=1.00D-06.
 No special actions if energy rises.
 Fock matrices will be formed incrementally for  20 cycles.

 Cycle   1  Pass 1  IDiag  1:
 FoFJK:  IHMeth= 1 ICntrl=       0 DoSepK=T KAlg= 0 I1Cent=           0 FoldK=F
 IRaf=         1 NMat=       1 IRICut=       1 DoRegI=T DoRafI=F ISym2E= 0 IDoP0=0 IntGTp=1.
 FoFCou: FMM=F IPFlag=           0 FMFlag=      100000 FMFlg1=           0
         NFxFlg=           0 DoJE=T BraDBF=F KetDBF=F FulRan=T
         wScrn=  0.000000 ICntrl=       500 IOpCl=  0 I1Cent=           0 NGrid=           0
         NMat0=    1 NMatS0=      1 NMatT0=    0 NMatD0=    1 NMtDS0=    0 NMtDT0=    0
 Symmetry not used in FoFCou.
 Inv3:  Mode=1 IEnd=     8098347.
 Iteration    1 A*A^-1 deviation from unit magnitude is 3.33D-15 for   1451.
 Iteration    1 A*A^-1 deviation from orthogonality  is 2.00D-15 for   1479    980.
 Iteration    1 A^-1*A deviation from unit magnitude is 3.33D-15 for   1451.
 Iteration    1 A^-1*A deviation from orthogonality  is 2.55D-15 for   1457     64.
 E= -551.700268124722    
 DIIS: error= 2.78D-02 at cycle   1 NSaved=   1.
 NSaved= 1 IEnMin= 1 EnMin= -551.700268124722     IErMin= 1 ErrMin= 2.78D-02
 ErrMax= 2.78D-02  0.00D+00 EMaxC= 1.00D-01 BMatC= 5.13D-02 BMatP= 5.13D-02
 IDIUse=3 WtCom= 7.22D-01 WtEn= 2.78D-01
 Coeff-Com:  0.100D+01
 Coeff-En:   0.100D+01
 Coeff:      0.100D+01
 Recover alternate guess density for next cycle.
 RMSDP=4.97D-03 MaxDP=1.32D-01              OVMax= 0.00D+00

 Cycle   2  Pass 1  IDiag  1:
 RMSU=  4.97D-03    CP:  1.00D+00
 E= -551.714683923471     Delta-E=       -0.014415798748 Rises=F Damp=F
 DIIS: error= 3.38D-02 at cycle   2 NSaved=   2.
 NSaved= 2 IEnMin= 2 EnMin= -551.714683923471     IErMin= 1 ErrMin= 2.78D-02
 ErrMax= 3.38D-02  0.00D+00 EMaxC= 1.00D-01 BMatC= 2.47D-01 BMatP= 5.13D-02
 IDIUse=2 WtCom= 0.00D+00 WtEn= 1.00D+00
 Coeff-En:   0.000D+00 0.100D+01
 Coeff:      0.000D+00 0.100D+01
 Gap=     0.402 Goal=   None    Shift=    0.000
 RMSDP=4.54D-03 MaxDP=1.00D-01 DE=-1.44D-02 OVMax= 9.94D-02

 Cycle   3  Pass 1  IDiag  1:
 RMSU=  2.72D-03    CP:  9.97D-01  2.69D-01
 E= -551.759808533083     Delta-E=       -0.045124609612 Rises=F Damp=F
 DIIS: error= 2.58D-02 at cycle   3 NSaved=   3.
 NSaved= 3 IEnMin= 3 EnMin= -551.759808533083     IErMin= 3 ErrMin= 2.58D-02
 ErrMax= 2.58D-02  0.00D+00 EMaxC= 1.00D-01 BMatC= 6.88D-02 BMatP= 5.13D-02
 IDIUse=2 WtCom= 0.00D+00 WtEn= 1.00D+00
 Coeff-En:   0.000D+00 0.306D+00 0.694D+00
 Coeff:      0.000D+00 0.306D+00 0.694D+00
 Gap=     0.361 Goal=   None    Shift=    0.000
 RMSDP=1.96D-03 MaxDP=7.84D-02 DE=-4.51D-02 OVMax= 9.40D-02

 Cycle   4  Pass 1  IDiag  1:
 RMSU=  1.45D-03    CP:  9.92D-01  3.57D-01  5.49D-01
 E= -551.804914061461     Delta-E=       -0.045105528378 Rises=F Damp=F
 DIIS: error= 1.60D-02 at cycle   4 NSaved=   4.
 NSaved= 4 IEnMin= 4 EnMin= -551.804914061461     IErMin= 4 ErrMin= 1.60D-02
 ErrMax= 1.60D-02  0.00D+00 EMaxC= 1.00D-01 BMatC= 1.83D-02 BMatP= 5.13D-02
 IDIUse=3 WtCom= 8.40D-01 WtEn= 1.60D-01
 Coeff-Com:  0.322D-01 0.307D-01 0.328D+00 0.609D+00
 Coeff-En:   0.000D+00 0.000D+00 0.171D+00 0.829D+00
 Coeff:      0.270D-01 0.258D-01 0.303D+00 0.644D+00
 Gap=     0.338 Goal=   None    Shift=    0.000
 RMSDP=8.03D-04 MaxDP=3.14D-02 DE=-4.51D-02 OVMax= 3.74D-02

 Cycle   5  Pass 1  IDiag  1:
 RMSU=  5.18D-04    CP:  9.93D-01  3.03D-01  6.79D-01  7.09D-01
 E= -551.818488219606     Delta-E=       -0.013574158145 Rises=F Damp=F
 DIIS: error= 4.51D-03 at cycle   5 NSaved=   5.
 NSaved= 5 IEnMin= 5 EnMin= -551.818488219606     IErMin= 5 ErrMin= 4.51D-03
 ErrMax= 4.51D-03  0.00D+00 EMaxC= 1.00D-01 BMatC= 2.63D-03 BMatP= 1.83D-02
 IDIUse=3 WtCom= 9.55D-01 WtEn= 4.51D-02
 Coeff-Com: -0.142D-02-0.334D-02 0.130D+00 0.369D+00 0.506D+00
 Coeff-En:   0.000D+00 0.000D+00 0.000D+00 0.285D-01 0.972D+00
 Coeff:     -0.136D-02-0.319D-02 0.124D+00 0.354D+00 0.527D+00
 Gap=     0.327 Goal=   None    Shift=    0.000
 RMSDP=2.83D-04 MaxDP=7.82D-03 DE=-1.36D-02 OVMax= 1.21D-02

 Cycle   6  Pass 1  IDiag  1:
 RMSU=  1.38D-04    CP:  9.92D-01  2.94D-01  6.82D-01  7.84D-01  5.92D-01
 E= -551.820378790048     Delta-E=       -0.001890570442 Rises=F Damp=F
 DIIS: error= 6.05D-04 at cycle   6 NSaved=   6.
 NSaved= 6 IEnMin= 6 EnMin= -551.820378790048     IErMin= 6 ErrMin= 6.05D-04
 ErrMax= 6.05D-04  0.00D+00 EMaxC= 1.00D-01 BMatC= 6.07D-05 BMatP= 2.63D-03
 IDIUse=3 WtCom= 9.94D-01 WtEn= 6.05D-03
 Coeff-Com: -0.121D-02-0.277D-02 0.226D-01 0.882D-01 0.200D+00 0.693D+00
 Coeff-En:   0.000D+00 0.000D+00 0.000D+00 0.000D+00 0.000D+00 0.100D+01
 Coeff:     -0.120D-02-0.275D-02 0.224D-01 0.877D-01 0.198D+00 0.695D+00
 Gap=     0.327 Goal=   None    Shift=    0.000
 RMSDP=5.23D-05 MaxDP=1.56D-03 DE=-1.89D-03 OVMax= 2.04D-03

 Cycle   7  Pass 1  IDiag  1:
 RMSU=  3.87D-05    CP:  9.92D-01  2.90D-01  6.84D-01  7.87D-01  6.48D-01
                    CP:  9.42D-01
 E= -551.820431093303     Delta-E=       -0.000052303255 Rises=F Damp=F
 DIIS: error= 2.07D-04 at cycle   7 NSaved=   7.
 NSaved= 7 IEnMin= 7 EnMin= -551.820431093303     IErMin= 7 ErrMin= 2.07D-04
 ErrMax= 2.07D-04  0.00D+00 EMaxC= 1.00D-01 BMatC= 4.72D-06 BMatP= 6.07D-05
 IDIUse=3 WtCom= 9.98D-01 WtEn= 2.07D-03
 Coeff-Com:  0.474D-04-0.176D-03-0.145D-01-0.298D-01-0.230D-01 0.211D+00
 Coeff-Com:  0.857D+00
 Coeff-En:   0.000D+00 0.000D+00 0.000D+00 0.000D+00 0.000D+00 0.000D+00
 Coeff-En:   0.100D+01
 Coeff:      0.473D-04-0.176D-03-0.144D-01-0.297D-01-0.229D-01 0.210D+00
 Coeff:      0.857D+00
 Gap=     0.327 Goal=   None    Shift=    0.000
 RMSDP=2.44D-05 MaxDP=5.16D-04 DE=-5.23D-05 OVMax= 1.30D-03

 Cycle   8  Pass 1  IDiag  1:
 RMSU=  1.37D-05    CP:  9.92D-01  2.89D-01  6.83D-01  7.93D-01  6.55D-01
                    CP:  1.06D+00  1.06D+00
 E= -551.820438383742     Delta-E=       -0.000007290439 Rises=F Damp=F
 DIIS: error= 3.93D-05 at cycle   8 NSaved=   8.
 NSaved= 8 IEnMin= 8 EnMin= -551.820438383742     IErMin= 8 ErrMin= 3.93D-05
 ErrMax= 3.93D-05  0.00D+00 EMaxC= 1.00D-01 BMatC= 5.05D-07 BMatP= 4.72D-06
 IDIUse=1 WtCom= 1.00D+00 WtEn= 0.00D+00
 Coeff-Com:  0.848D-04 0.176D-03-0.725D-02-0.173D-01-0.244D-01 0.258D-01
 Coeff-Com:  0.319D+00 0.704D+00
 Coeff:      0.848D-04 0.176D-03-0.725D-02-0.173D-01-0.244D-01 0.258D-01
 Coeff:      0.319D+00 0.704D+00
 Gap=     0.327 Goal=   None    Shift=    0.000
 RMSDP=6.24D-06 MaxDP=1.55D-04 DE=-7.29D-06 OVMax= 3.99D-04

 Cycle   9  Pass 1  IDiag  1:
 RMSU=  4.00D-06    CP:  9.92D-01  2.89D-01  6.83D-01  7.94D-01  6.56D-01
                    CP:  1.08D+00  1.13D+00  1.02D+00
 E= -551.820439085806     Delta-E=       -0.000000702064 Rises=F Damp=F
 DIIS: error= 2.23D-05 at cycle   9 NSaved=   9.
 NSaved= 9 IEnMin= 9 EnMin= -551.820439085806     IErMin= 9 ErrMin= 2.23D-05
 ErrMax= 2.23D-05  0.00D+00 EMaxC= 1.00D-01 BMatC= 3.31D-08 BMatP= 5.05D-07
 IDIUse=1 WtCom= 1.00D+00 WtEn= 0.00D+00
 Coeff-Com:  0.182D-04 0.436D-04 0.513D-03 0.889D-03-0.229D-02-0.253D-01
 Coeff-Com: -0.539D-01 0.987D-01 0.981D+00
 Coeff:      0.182D-04 0.436D-04 0.513D-03 0.889D-03-0.229D-02-0.253D-01
 Coeff:     -0.539D-01 0.987D-01 0.981D+00
 Gap=     0.327 Goal=   None    Shift=    0.000
 RMSDP=2.98D-06 MaxDP=6.53D-05 DE=-7.02D-07 OVMax= 1.87D-04

 Cycle  10  Pass 1  IDiag  1:
 RMSU=  1.51D-06    CP:  9.92D-01  2.89D-01  6.82D-01  7.94D-01  6.55D-01
                    CP:  1.09D+00  1.16D+00  1.15D+00  1.20D+00
 E= -551.820439183017     Delta-E=       -0.000000097211 Rises=F Damp=F
 DIIS: error= 7.03D-06 at cycle  10 NSaved=  10.
 NSaved=10 IEnMin=10 EnMin= -551.820439183017     IErMin=10 ErrMin= 7.03D-06
 ErrMax= 7.03D-06  0.00D+00 EMaxC= 1.00D-01 BMatC= 7.92D-09 BMatP= 3.31D-08
 IDIUse=1 WtCom= 1.00D+00 WtEn= 0.00D+00
 Coeff-Com:  0.142D-05-0.914D-05 0.998D-03 0.233D-02 0.173D-02-0.122D-01
 Coeff-Com: -0.535D-01-0.424D-01 0.404D+00 0.699D+00
 Coeff:      0.142D-05-0.914D-05 0.998D-03 0.233D-02 0.173D-02-0.122D-01
 Coeff:     -0.535D-01-0.424D-01 0.404D+00 0.699D+00
 Gap=     0.327 Goal=   None    Shift=    0.000
 RMSDP=8.98D-07 MaxDP=1.70D-05 DE=-9.72D-08 OVMax= 7.81D-05

 Cycle  11  Pass 1  IDiag  1:
 RMSU=  6.14D-07    CP:  9.92D-01  2.89D-01  6.82D-01  7.94D-01  6.55D-01
                    CP:  1.09D+00  1.17D+00  1.18D+00  1.32D+00  1.02D+00
 E= -551.820439197857     Delta-E=       -0.000000014840 Rises=F Damp=F
 DIIS: error= 4.00D-06 at cycle  11 NSaved=  11.
 NSaved=11 IEnMin=11 EnMin= -551.820439197857     IErMin=11 ErrMin= 4.00D-06
 ErrMax= 4.00D-06  0.00D+00 EMaxC= 1.00D-01 BMatC= 6.23D-10 BMatP= 7.92D-09
 IDIUse=1 WtCom= 1.00D+00 WtEn= 0.00D+00
 Coeff-Com: -0.208D-05-0.529D-05 0.166D-04 0.922D-04 0.328D-03 0.309D-02
 Coeff-Com:  0.399D-02-0.197D-01-0.107D+00 0.661D-02 0.111D+01
 Coeff:     -0.208D-05-0.529D-05 0.166D-04 0.922D-04 0.328D-03 0.309D-02
 Coeff:      0.399D-02-0.197D-01-0.107D+00 0.661D-02 0.111D+01
 Gap=     0.327 Goal=   None    Shift=    0.000
 RMSDP=5.05D-07 MaxDP=8.69D-06 DE=-1.48D-08 OVMax= 4.74D-05

 Cycle  12  Pass 1  IDiag  1:
 RMSU=  2.13D-07    CP:  9.92D-01  2.89D-01  6.82D-01  7.94D-01  6.55D-01
                    CP:  1.09D+00  1.17D+00  1.19D+00  1.37D+00  1.22D+00
                    CP:  1.36D+00
 E= -551.820439201212     Delta-E=       -0.000000003355 Rises=F Damp=F
 DIIS: error= 1.38D-06 at cycle  12 NSaved=  12.
 NSaved=12 IEnMin=12 EnMin= -551.820439201212     IErMin=12 ErrMin= 1.38D-06
 ErrMax= 1.38D-06  0.00D+00 EMaxC= 1.00D-01 BMatC= 7.50D-11 BMatP= 6.23D-10
 IDIUse=1 WtCom= 1.00D+00 WtEn= 0.00D+00
 Coeff-Com: -0.218D-06 0.153D-05-0.125D-03-0.293D-03-0.220D-03 0.157D-02
 Coeff-Com:  0.640D-02 0.485D-02-0.424D-01-0.979D-01-0.257D-02 0.113D+01
 Coeff:     -0.218D-06 0.153D-05-0.125D-03-0.293D-03-0.220D-03 0.157D-02
 Coeff:      0.640D-02 0.485D-02-0.424D-01-0.979D-01-0.257D-02 0.113D+01
 Gap=     0.327 Goal=   None    Shift=    0.000
 RMSDP=1.97D-07 MaxDP=4.12D-06 DE=-3.35D-09 OVMax= 1.97D-05

 Cycle  13  Pass 1  IDiag  1:
 RMSU=  7.55D-08    CP:  9.92D-01  2.89D-01  6.82D-01  7.94D-01  6.55D-01
                    CP:  1.09D+00  1.17D+00  1.19D+00  1.38D+00  1.27D+00
                    CP:  1.57D+00  1.43D+00
 E= -551.820439201736     Delta-E=       -0.000000000524 Rises=F Damp=F
 DIIS: error= 4.94D-07 at cycle  13 NSaved=  13.
 NSaved=13 IEnMin=13 EnMin= -551.820439201736     IErMin=13 ErrMin= 4.94D-07
 ErrMax= 4.94D-07  0.00D+00 EMaxC= 1.00D-01 BMatC= 2.16D-11 BMatP= 7.50D-11
 IDIUse=1 WtCom= 1.00D+00 WtEn= 0.00D+00
 Coeff-Com:  0.348D-06 0.125D-05-0.531D-04-0.135D-03-0.130D-03 0.142D-03
 Coeff-Com:  0.183D-02 0.456D-02-0.100D-02-0.417D-01-0.165D+00 0.434D+00
 Coeff-Com:  0.767D+00
 Coeff:      0.348D-06 0.125D-05-0.531D-04-0.135D-03-0.130D-03 0.142D-03
 Coeff:      0.183D-02 0.456D-02-0.100D-02-0.417D-01-0.165D+00 0.434D+00
 Coeff:      0.767D+00
 Gap=     0.327 Goal=   None    Shift=    0.000
 RMSDP=6.54D-08 MaxDP=1.25D-06 DE=-5.24D-10 OVMax= 6.98D-06

 Cycle  14  Pass 1  IDiag  1:
 RMSU=  3.09D-08    CP:  9.92D-01  2.89D-01  6.82D-01  7.94D-01  6.55D-01
                    CP:  1.09D+00  1.17D+00  1.19D+00  1.38D+00  1.28D+00
                    CP:  1.62D+00  1.61D+00  1.13D+00
 E= -551.820439201800     Delta-E=       -0.000000000065 Rises=F Damp=F
 DIIS: error= 9.99D-08 at cycle  14 NSaved=  14.
 NSaved=14 IEnMin=14 EnMin= -551.820439201800     IErMin=14 ErrMin= 9.99D-08
 ErrMax= 9.99D-08  0.00D+00 EMaxC= 1.00D-01 BMatC= 1.64D-12 BMatP= 2.16D-11
 IDIUse=1 WtCom= 1.00D+00 WtEn= 0.00D+00
 Coeff-Com:  0.580D-07-0.104D-06 0.121D-04 0.240D-04 0.182D-04-0.267D-03
 Coeff-Com: -0.809D-03-0.829D-04 0.746D-02 0.992D-02-0.258D-01-0.124D+00
 Coeff-Com:  0.932D-01 0.104D+01
 Coeff:      0.580D-07-0.104D-06 0.121D-04 0.240D-04 0.182D-04-0.267D-03
 Coeff:     -0.809D-03-0.829D-04 0.746D-02 0.992D-02-0.258D-01-0.124D+00
 Coeff:      0.932D-01 0.104D+01
 Gap=     0.327 Goal=   None    Shift=    0.000
 RMSDP=2.67D-08 MaxDP=5.02D-07 DE=-6.46D-11 OVMax= 2.35D-06

 Cycle  15  Pass 1  IDiag  1:
 RMSU=  8.07D-09    CP:  9.92D-01  2.89D-01  6.82D-01  7.94D-01  6.55D-01
                    CP:  1.09D+00  1.17D+00  1.19D+00  1.38D+00  1.28D+00
                    CP:  1.63D+00  1.68D+00  1.34D+00  1.24D+00
 E= -551.820439201806     Delta-E=       -0.000000000006 Rises=F Damp=F
 DIIS: error= 1.81D-08 at cycle  15 NSaved=  15.
 NSaved=15 IEnMin=15 EnMin= -551.820439201806     IErMin=15 ErrMin= 1.81D-08
 ErrMax= 1.81D-08  0.00D+00 EMaxC= 1.00D-01 BMatC= 1.13D-13 BMatP= 1.64D-12
 IDIUse=1 WtCom= 1.00D+00 WtEn= 0.00D+00
 Coeff-Com: -0.442D-07-0.970D-07 0.562D-05 0.123D-04 0.122D-04-0.655D-04
 Coeff-Com: -0.269D-03-0.261D-03 0.175D-02 0.454D-02 0.209D-02-0.490D-01
 Coeff-Com: -0.153D-01 0.245D+00 0.812D+00
 Coeff:     -0.442D-07-0.970D-07 0.562D-05 0.123D-04 0.122D-04-0.655D-04
 Coeff:     -0.269D-03-0.261D-03 0.175D-02 0.454D-02 0.209D-02-0.490D-01
 Coeff:     -0.153D-01 0.245D+00 0.812D+00
 Gap=     0.327 Goal=   None    Shift=    0.000
 RMSDP=4.00D-09 MaxDP=8.44D-08 DE=-5.80D-12 OVMax= 1.98D-07

 Error on total polarization charges =  0.00683
 SCF Done:  E(RwB97XD) =  -551.820439202     A.U. after   15 cycles
            NFock= 15  Conv=0.40D-08     -V/T= 2.0095
 KE= 5.466084643527D+02 PE=-2.595556878111D+03 EE= 8.415038358424D+02
 Leave Link  502 at Wed Feb 28 21:00:34 2024, MaxMem=  2147483648 cpu:             380.7 elap:              13.9
 (Enter /software/gaussian-16RevA.03-el7-x86_64/g16/l508.exe)
 QCSCF skips out because SCF is already converged.
 Leave Link  508 at Wed Feb 28 21:00:34 2024, MaxMem=  2147483648 cpu:               1.2 elap:               0.1
 (Enter /software/gaussian-16RevA.03-el7-x86_64/g16/l801.exe)
 DoSCS=F DFT=T ScalE2(SS,OS)=  1.000000  1.000000
 Range of M.O.s used for correlation:     1   182
 NBasis=   182 NAE=    42 NBE=    42 NFC=     0 NFV=     0
 NROrb=    182 NOA=    42 NOB=    42 NVA=   140 NVB=   140

 **** Warning!!: The largest alpha MO coefficient is  0.16523839D+02

 Leave Link  801 at Wed Feb 28 21:00:34 2024, MaxMem=  2147483648 cpu:               1.9 elap:               0.1
 (Enter /software/gaussian-16RevA.03-el7-x86_64/g16/l1101.exe)
 Leave Link 1101 at Wed Feb 28 21:00:34 2024, MaxMem=  2147483648 cpu:               0.8 elap:               0.1
 (Enter /software/gaussian-16RevA.03-el7-x86_64/g16/l1102.exe)
 Symmetrizing basis deriv contribution to polar:
 IMax=3 JMax=2 DiffMx= 0.00D+00
 Leave Link 1102 at Wed Feb 28 21:00:34 2024, MaxMem=  2147483648 cpu:               1.1 elap:               0.1
 (Enter /software/gaussian-16RevA.03-el7-x86_64/g16/l1110.exe)
 Leave Link 1110 at Wed Feb 28 21:00:34 2024, MaxMem=  2147483648 cpu:               1.0 elap:               0.1
 (Enter /software/gaussian-16RevA.03-el7-x86_64/g16/l1002.exe)
 Minotr:  Closed shell wavefunction.
 Leave Link 1002 at Wed Feb 28 21:00:34 2024, MaxMem=  2147483648 cpu:               0.8 elap:               0.1
 (Enter /software/gaussian-16RevA.03-el7-x86_64/g16/l701.exe)
 ... and contract with generalized density number  0.
 Compute integral first derivatives.
 R6Disp: Adding Grimme-D2 dispersion energy 1st derivatives to the gradient.
   1 Symmetry operations used in ECPInt.
 ECPInt:  NShTT=    3741 NPrTT=   15055 LenC2=    3665 LenP2D=   11027.
 LDataN:  DoStor=T MaxTD1= 5 Len=  102
 D1PCM: PCM CHGder 1st derivatives, ID1Alg=3 FixD1E=F DoIter=F DoCFld=F I1PDM=0.
 GePol: Maximum number of non-zero 1st derivatives   =     202
 Leave Link  701 at Wed Feb 28 21:00:35 2024, MaxMem=  2147483648 cpu:              20.6 elap:               0.8
 (Enter /software/gaussian-16RevA.03-el7-x86_64/g16/l702.exe)
 L702 exits ... SP integral derivatives will be done elsewhere.
 Leave Link  702 at Wed Feb 28 21:00:35 2024, MaxMem=  2147483648 cpu:               0.5 elap:               0.0
 (Enter /software/gaussian-16RevA.03-el7-x86_64/g16/l703.exe)
 Integral derivatives from FoFJK, PRISM(SPDF).
 Compute integral first derivatives, UseDBF=F ICtDFT=           0.
 Calling FoFJK, ICntrl=      2127 FMM=F ISym2X=0 I1Cent= 0 IOpClX= 0 NMat=1 NMatS=1 NMatT=0.
 FoFJK:  IHMeth= 1 ICntrl=    2127 DoSepK=T KAlg= 0 I1Cent=           0 FoldK=F
 IRaf=         1 NMat=       1 IRICut=       1 DoRegI=T DoRafI=F ISym2E= 0 IDoP0=0 IntGTp=1.
 FoFCou: FMM=F IPFlag=           0 FMFlag=      100000 FMFlg1=         800
         NFxFlg=           0 DoJE=F BraDBF=F KetDBF=F FulRan=T
         wScrn=  0.000000 ICntrl=      2527 IOpCl=  0 I1Cent=           0 NGrid=           0
         NMat0=    1 NMatS0=      1 NMatT0=    0 NMatD0=    1 NMtDS0=    0 NMtDT0=    0
 Symmetry not used in FoFCou.
 Leave Link  703 at Wed Feb 28 21:00:37 2024, MaxMem=  2147483648 cpu:              51.8 elap:               1.9
 (Enter /software/gaussian-16RevA.03-el7-x86_64/g16/l716.exe)
 Dipole        = 1.13303663D+00-1.07617349D-01-6.49526911D-02
 Polarizability= 0.00000000D+00 0.00000000D+00 0.00000000D+00
                 0.00000000D+00 0.00000000D+00 0.00000000D+00
 -------------------------------------------------------------------
 Center     Atomic                   Forces (Hartrees/Bohr)
 Number     Number              X              Y              Z
 -------------------------------------------------------------------
      1        6          -0.000065447    0.006250466   -0.001680494
      2        7           0.002972158   -0.002967810    0.002711516
      3        6          -0.000334351    0.002480104    0.001244880
      4        8           0.002991907    0.000088840    0.000115406
      5        6          -0.002517660   -0.000878021   -0.000656996
      6        6          -0.000341834   -0.000310346   -0.000166754
      7        6           0.000127190   -0.000247287   -0.000035060
      8        6           0.000192035    0.000193276    0.000064975
      9        6          -0.000272185    0.000213972    0.000088221
     10        6          -0.002059046    0.001250397    0.000478005
     11        6          -0.001442964   -0.003871906   -0.001934173
     12        8           0.000699557   -0.001466086   -0.000144369
     13        1           0.001517742    0.000051394    0.000219651
     14        1           0.002419535   -0.000765159   -0.000579289
     15        1          -0.003432391   -0.000056412    0.000216415
     16        1           0.000032602    0.000367599    0.000141620
     17        1          -0.000196970    0.000121739    0.000071196
     18        1          -0.000208575   -0.000096935   -0.000034526
     19        1          -0.000081303   -0.000357825   -0.000120224
 -------------------------------------------------------------------
 Cartesian Forces:  Max     0.006250466 RMS     0.001581847
 Leave Link  716 at Wed Feb 28 21:00:37 2024, MaxMem=  2147483648 cpu:               1.1 elap:               0.1
 (Enter /software/gaussian-16RevA.03-el7-x86_64/g16/l103.exe)

 GradGradGradGradGradGradGradGradGradGradGradGradGradGradGradGradGradGrad
 Berny optimization.
 Using GEDIIS/GDIIS optimizer.
 FormGI is forming the generalized inverse of G from B-inverse, IUseBI=4.
 Internal  Forces:  Max     0.006310125 RMS     0.001258351
 Step   4 in ReCalcFC=50 IGetFC= 0 update Hessian.
 Search for a local minimum.
 Step number   4 out of a maximum of  114
 All quantities printed in internal units (Hartrees-Bohrs-Radians)
 RMS Force = .12584D-02 SwitMx=.10000D-02 MixMth= 1
 Mixed Optimization -- RFO/linear search
 Update second derivatives using D2CorX and points    1    2    4    3
 DE=  4.57D-04 DEPred=-1.68D-04 R=-2.72D+00
 Trust test=-2.72D+00 RLast= 1.90D+00 DXMaxT set to 2.65D-01
 ITU= -1  1  1  0
 Use linear search instead of GDIIS.
     Eigenvalues ---    0.00014   0.00617   0.01011   0.01486   0.01619
     Eigenvalues ---    0.01799   0.01863   0.02150   0.02428   0.02713
     Eigenvalues ---    0.03028   0.03197   0.04315   0.04933   0.06061
     Eigenvalues ---    0.06503   0.10715   0.10771   0.12099   0.12459
     Eigenvalues ---    0.13489   0.14795   0.16853   0.18695   0.19127
     Eigenvalues ---    0.19521   0.20023   0.21682   0.24431   0.27446
     Eigenvalues ---    0.27809   0.29140   0.30517   0.35597   0.35890
     Eigenvalues ---    0.36619   0.37230   0.37463   0.37497   0.38127
     Eigenvalues ---    0.38253   0.39380   0.41022   0.41700   0.43758
     Eigenvalues ---    0.48941   0.49738   0.51109   0.54787   0.86054
     Eigenvalues ---    1.27611
 RFO step:  Lambda=-5.55158328D-06 EMin= 1.44870907D-04
 Quartic linear search produced a step of -0.91958.
 Iteration  1 RMS(Cart)=  0.06556065 RMS(Int)=  0.11524997
 Iteration  2 RMS(Cart)=  0.06618032 RMS(Int)=  0.06610777
 Iteration  3 RMS(Cart)=  0.06618359 RMS(Int)=  0.01755532
 Iteration  4 RMS(Cart)=  0.02305032 RMS(Int)=  0.00068811
 Iteration  5 RMS(Cart)=  0.00072271 RMS(Int)=  0.00001291
 Iteration  6 RMS(Cart)=  0.00000059 RMS(Int)=  0.00001290
 ITry= 1 IFail=0 DXMaxC= 1.14D+00 DCOld= 1.00D+10 DXMaxT= 2.65D-01 DXLimC= 3.00D+00 Rises=F
 Variable       Old X    -DE/DX   Delta X   Delta X   Delta X     New X
                                 (Linear)    (Quad)   (Total)
    R1        2.72993  -0.00021  -0.00030   0.00013  -0.00017   2.72976
    R2        2.07863  -0.00081   0.00342  -0.00029   0.00313   2.08177
    R3        2.08752  -0.00121  -0.00563   0.00004  -0.00559   2.08193
    R4        2.07854   0.00079  -0.00127   0.00009  -0.00117   2.07736
    R5        2.64138  -0.00093  -0.00699   0.00044  -0.00655   2.63483
    R6        2.64626  -0.00473  -0.00793   0.00004  -0.00790   2.63836
    R7        2.27935  -0.00148  -0.00054  -0.00011  -0.00065   2.27871
    R8        2.83454  -0.00328  -0.00968   0.00054  -0.00914   2.82540
    R9        2.61910  -0.00033  -0.00064  -0.00002  -0.00066   2.61844
   R10        2.63299  -0.00100  -0.00092  -0.00008  -0.00099   2.63200
   R11        2.64739  -0.00004  -0.00005  -0.00002  -0.00007   2.64733
   R12        2.06599  -0.00040  -0.00095  -0.00007  -0.00102   2.06497
   R13        2.64335   0.00013   0.00046   0.00003   0.00049   2.64383
   R14        2.06669  -0.00024  -0.00055  -0.00004  -0.00059   2.06610
   R15        2.64731  -0.00001   0.00004  -0.00002   0.00002   2.64733
   R16        2.06666  -0.00023  -0.00055  -0.00004  -0.00059   2.06607
   R17        2.61916  -0.00042  -0.00060  -0.00003  -0.00063   2.61852
   R18        2.06596  -0.00038  -0.00092  -0.00006  -0.00098   2.06497
   R19        2.83442  -0.00307  -0.00913   0.00035  -0.00878   2.82563
   R20        2.27861  -0.00156  -0.00024  -0.00010  -0.00034   2.27827
    A1        1.90512  -0.00233   0.02453  -0.00285   0.02165   1.92676
    A2        1.96220  -0.00404  -0.03333   0.00026  -0.03308   1.92912
    A3        1.87461   0.00631   0.00564   0.00333   0.00900   1.88361
    A4        1.90794   0.00144  -0.00468  -0.00028  -0.00501   1.90293
    A5        1.91654  -0.00094  -0.00596   0.00008  -0.00589   1.91066
    A6        1.89698  -0.00036   0.01408  -0.00048   0.01364   1.91062
    A7        2.15203   0.00269   0.00069   0.00113   0.00185   2.15388
    A8        2.16602  -0.00223   0.00281  -0.00120   0.00164   2.16767
    A9        1.96459  -0.00045  -0.00300   0.00004  -0.00295   1.96164
   A10        2.17649   0.00287   0.00440   0.00088   0.00528   2.18177
   A11        1.84400   0.00019   0.00338  -0.00029   0.00308   1.84707
   A12        2.26269  -0.00306  -0.00777  -0.00059  -0.00835   2.25434
   A13        2.27532   0.00010   0.00104  -0.00027   0.00077   2.27609
   A14        1.88619  -0.00036  -0.00187   0.00027  -0.00160   1.88459
   A15        2.12166   0.00027   0.00084   0.00001   0.00085   2.12251
   A16        2.04814  -0.00017  -0.00093  -0.00001  -0.00094   2.04720
   A17        2.11564   0.00008   0.00033  -0.00002   0.00031   2.11595
   A18        2.11940   0.00009   0.00060   0.00004   0.00063   2.12003
   A19        2.11326  -0.00009   0.00018   0.00000   0.00018   2.11344
   A20        2.08646   0.00005   0.00013   0.00001   0.00013   2.08659
   A21        2.08347   0.00004  -0.00030  -0.00001  -0.00031   2.08315
   A22        2.11306  -0.00009   0.00025  -0.00002   0.00023   2.11329
   A23        2.08356   0.00004  -0.00036  -0.00000  -0.00036   2.08320
   A24        2.08657   0.00005   0.00012   0.00002   0.00013   2.08670
   A25        2.04793  -0.00013  -0.00083  -0.00001  -0.00084   2.04709
   A26        2.11959   0.00011   0.00061   0.00002   0.00063   2.12022
   A27        2.11566   0.00001   0.00022  -0.00001   0.00021   2.11587
   A28        2.12231   0.00022   0.00050   0.00003   0.00052   2.12283
   A29        1.88866  -0.00052  -0.00186  -0.00017  -0.00203   1.88663
   A30        2.27221   0.00031   0.00137   0.00014   0.00151   2.27372
   A31        1.84134   0.00115   0.00336   0.00015   0.00351   1.84485
   A32        2.18458  -0.00025   0.00489  -0.00056   0.00434   2.18892
   A33        2.25725  -0.00090  -0.00823   0.00040  -0.00782   2.24942
    D1       -0.37770   0.00118  -0.68595   0.04808  -0.63789  -1.01559
    D2        2.80218   0.00107  -0.72485   0.04886  -0.67601   2.12617
    D3        1.74250  -0.00129  -0.69725   0.04591  -0.65130   1.09120
    D4       -1.36081  -0.00139  -0.73615   0.04670  -0.68942  -2.05022
    D5       -2.45473  -0.00002  -0.69602   0.04765  -0.64839  -3.10313
    D6        0.72515  -0.00012  -0.73492   0.04843  -0.68651   0.03864
    D7        0.03478  -0.00014  -0.03516   0.00132  -0.03386   0.00092
    D8       -3.11001  -0.00023  -0.03206   0.00096  -0.03113  -3.14115
    D9       -3.14115  -0.00010  -0.00029   0.00059   0.00032  -3.14083
   D10       -0.00275  -0.00018   0.00281   0.00023   0.00304   0.00029
   D11        3.11046   0.00029   0.03183  -0.00083   0.03098   3.14144
   D12       -0.03723   0.00035   0.03811  -0.00083   0.03726   0.00004
   D13        0.00352   0.00013  -0.00337  -0.00015  -0.00351   0.00000
   D14        3.13902   0.00019   0.00291  -0.00014   0.00277  -3.14140
   D15       -3.13601   0.00006  -0.00583   0.00005  -0.00578   3.14139
   D16        0.00077   0.00016  -0.00104  -0.00022  -0.00125  -0.00049
   D17        0.00217  -0.00002  -0.00252  -0.00034  -0.00287  -0.00070
   D18        3.13895   0.00008   0.00227  -0.00061   0.00166   3.14061
   D19        3.13750   0.00012   0.00403  -0.00025   0.00378   3.14127
   D20       -0.00346   0.00008   0.00328  -0.00021   0.00307  -0.00039
   D21        0.00128   0.00001  -0.00132   0.00004  -0.00128  -0.00000
   D22       -3.13968  -0.00003  -0.00207   0.00009  -0.00199   3.14152
   D23       -3.13772  -0.00010  -0.00378   0.00021  -0.00358  -3.14130
   D24        0.00130  -0.00008  -0.00094   0.00013  -0.00081   0.00049
   D25       -0.00043  -0.00001   0.00051  -0.00003   0.00047   0.00004
   D26        3.13859   0.00001   0.00334  -0.00011   0.00324  -3.14135
   D27       -0.00085  -0.00001   0.00084  -0.00002   0.00082  -0.00003
   D28        3.14104  -0.00002   0.00057  -0.00000   0.00057  -3.14158
   D29        3.14010   0.00003   0.00159  -0.00006   0.00153  -3.14155
   D30       -0.00119   0.00002   0.00132  -0.00005   0.00128   0.00009
   D31       -0.00042   0.00001   0.00048  -0.00002   0.00045   0.00003
   D32        3.14153  -0.00000   0.00003   0.00001   0.00004   3.14157
   D33        3.14087   0.00002   0.00074  -0.00004   0.00071   3.14158
   D34       -0.00036   0.00001   0.00030  -0.00000   0.00030  -0.00007
   D35        0.00126  -0.00000  -0.00129   0.00004  -0.00126   0.00001
   D36       -3.14018  -0.00001  -0.00144   0.00004  -0.00140  -3.14158
   D37       -3.14069   0.00001  -0.00085   0.00001  -0.00085  -3.14153
   D38        0.00105  -0.00000  -0.00100   0.00001  -0.00099   0.00006
   D39       -0.00085   0.00000   0.00082  -0.00001   0.00081  -0.00004
   D40       -3.13925  -0.00002  -0.00271   0.00008  -0.00263   3.14130
   D41        3.14060   0.00001   0.00097  -0.00002   0.00095   3.14155
   D42        0.00219  -0.00001  -0.00256   0.00008  -0.00249  -0.00029
   D43       -0.00289  -0.00002   0.00257   0.00000   0.00258  -0.00032
   D44       -3.13805  -0.00009  -0.00405   0.00000  -0.00406   3.14107
   D45        3.13584  -0.00001   0.00574  -0.00008   0.00566   3.14150
   D46        0.00068  -0.00007  -0.00089  -0.00008  -0.00098  -0.00030
         Item               Value     Threshold  Converged?
 Maximum Force            0.006310     0.000450     NO 
 RMS     Force            0.001258     0.000300     NO 
 Maximum Displacement     1.144554     0.001800     NO 
 RMS     Displacement     0.213962     0.001200     NO 
 Predicted change in Energy=-1.090075D-04
 Step   4 in ReCalcFC=50 IGetFC= 0 compute gradient.
 GradGradGradGradGradGradGradGradGradGradGradGradGradGradGradGradGradGrad

 Leave Link  103 at Wed Feb 28 21:00:37 2024, MaxMem=  2147483648 cpu:               1.5 elap:               0.1
 (Enter /software/gaussian-16RevA.03-el7-x86_64/g16/l202.exe)
                          Input orientation:                          
 ---------------------------------------------------------------------
 Center     Atomic      Atomic             Coordinates (Angstroms)
 Number     Number       Type             X           Y           Z
 ---------------------------------------------------------------------
      1          6           0       -3.187987    0.255984    0.218915
      2          7           0       -1.750898    0.146462    0.121788
      3          6           0       -1.093722   -1.025436   -0.250803
      4          8           0       -1.637755   -2.064441   -0.531060
      5          6           0        0.365632   -0.701610   -0.221495
      6          6           0        1.467283   -1.493628   -0.502593
      7          6           0        2.731223   -0.900794   -0.386239
      8          6           0        2.868982    0.437223   -0.001409
      9          6           0        1.747385    1.227948    0.280207
     10          6           0        0.502819    0.630400    0.161648
     11          6           0       -0.864477    1.191846    0.387671
     12          8           0       -1.178801    2.304959    0.727782
     13          1           0       -3.657864    0.010432   -0.746743
     14          1           0       -3.576211   -0.427007    0.991292
     15          1           0       -3.430589    1.292991    0.491320
     16          1           0        1.352531   -2.538080   -0.802626
     17          1           0        3.625859   -1.492051   -0.599352
     18          1           0        3.869142    0.871189    0.080413
     19          1           0        1.847448    2.273611    0.581285
 ---------------------------------------------------------------------
                    Distance matrix (angstroms):
                    1          2          3          4          5
     1  C    0.000000
     2  N    1.444526   0.000000
     3  C    2.499724   1.394291   0.000000
     4  O    2.889646   2.308052   1.205839   0.000000
     5  C    3.706637   2.305812   1.495138   2.442683   0.000000
     6  C    5.025262   3.665574   2.615597   3.157198   1.385620
     7  C    6.061468   4.630792   3.829371   4.523606   2.379670
     8  C    6.063685   4.630660   4.231382   5.181653   2.759010
     9  C    5.030544   3.665064   3.664915   4.791362   2.425725
    10  C    3.710192   2.305434   2.336847   3.510566   1.392792
    11  C    2.510581   1.396161   2.318737   3.470653   2.338681
    12  O    2.914460   2.313792   3.472232   4.570228   3.510820
    13  H    1.101624   2.099850   2.809591   2.903870   4.119638
    14  H    1.101708   2.101588   2.839660   2.959115   4.133327
    15  H    1.099292   2.066990   3.374433   3.941049   4.347164
    16  H    5.428319   4.206255   2.928610   3.039719   2.164325
    17  H    7.081927   5.666947   4.755383   5.295085   3.375893
    18  H    7.085247   5.666726   5.323242   6.270385   3.852197
    19  H    5.436704   4.205235   4.497395   5.674738   3.419383
                    6          7          8          9         10
     6  C    0.000000
     7  C    1.400905   0.000000
     8  C    2.438059   1.399057   0.000000
     9  C    2.845735   2.437956   1.400905   0.000000
    10  C    2.425469   2.758716   2.379628   1.385663   0.000000
    11  C    3.666258   4.231682   3.828780   2.614321   1.495262
    12  O    4.790077   5.177468   4.517157   3.150054   2.439775
    13  H    5.346862   6.463801   6.583114   5.635041   4.303582
    14  H    5.367141   6.473468   6.578211   5.620071   4.294754
    15  H    5.722085   6.599297   6.376498   5.182684   4.002426
    16  H    1.092735   2.180568   3.434239   3.938452   3.419225
    17  H    2.160745   1.093333   2.156964   3.420626   3.851921
    18  H    3.420698   2.156976   1.093316   2.160798   3.375900
    19  H    3.938452   3.434240   2.180685   1.092736   2.164316
                   11         12         13         14         15
    11  C    0.000000
    12  O    1.205610   0.000000
    13  H    3.238155   3.685761   0.000000
    14  H    3.215361   3.644263   1.794098   0.000000
    15  H    2.570196   2.480029   1.797056   1.797100   0.000000
    16  H    4.499365   5.674929   5.621574   5.653961   6.263357
    17  H    5.323593   6.266046   7.438535   7.452133   7.664169
    18  H    4.754406   5.287391   7.621083   7.612378   7.323444
    19  H    2.926131   3.029955   6.098697   6.072687   5.369115
                   16         17         18         19
    16  H    0.000000
    17  H    2.510681   0.000000
    18  H    4.328533   2.471066   0.000000
    19  H    5.031156   4.328610   2.510957   0.000000
 Symmetry turned off by external request.
 Stoichiometry    C9H7NO2
 Framework group  C1[X(C9H7NO2)]
 Deg. of freedom    51
 Full point group                 C1      NOp   1
 Rotational constants (GHZ):           1.7405455           0.8644552           0.5797399
 Leave Link  202 at Wed Feb 28 21:00:37 2024, MaxMem=  2147483648 cpu:               2.0 elap:               0.1
 (Enter /software/gaussian-16RevA.03-el7-x86_64/g16/l301.exe)
 Standard basis: def2SVPP (5D, 7F)
 Ernie: Thresh=  0.10000D-02 Tol=  0.10000D-05 Strict=F.
   182 basis functions,   328 primitive gaussians,   194 cartesian basis functions
    42 alpha electrons       42 beta electrons
       nuclear repulsion energy       656.3757207809 Hartrees.
 IExCor= 4639 DFT=T Ex+Corr=wB97XD ExCW=0 ScaHFX=  1.000000
 ScaDFX=  1.000000  1.000000  1.000000  1.000000 ScalE2=  1.000000  1.000000
 IRadAn=      5 IRanWt=     -1 IRanGd=            0 ICorTp=0 IEmpDi=121
 HFx  wShort=  0.000000 wLong=  0.200000 cFull=  0.222036 cShort=  0.000000 cLong=  0.777964
 DFx  wShort=  0.000000 wLong=  0.200000 cFull=  0.000000 cShort=  0.000000 cLong=  1.000000
 NAtoms=   19 NActive=   19 NUniq=   19 SFac= 1.00D+00 NAtFMM=   60 NAOKFM=F Big=F
 Integral buffers will be    131072 words long.
 Raffenetti 2 integral format.
 Two-electron integral symmetry is turned off.
 R6Disp:  Grimme-D2 Dispersion energy=       -0.0100141039 Hartrees.
 Nuclear repulsion after empirical dispersion term =      656.3657066770 Hartrees.
 Force inversion solution in PCM.
 ------------------------------------------------------------------------------
 Polarizable Continuum Model (PCM)
 =================================
 Model                : PCM.
 Atomic radii         : UFF (Universal Force Field).
 Polarization charges : Total charges.
 Charge compensation  : None.
 Solution method      : Matrix inversion.
 Cavity type          : Scaled VdW (van der Waals Surface) (Alpha=1.100).
 Cavity algorithm     : GePol (No added spheres)
                        Default sphere list used, NSphG=   19.
                        Lebedev-Laikov grids with approx.  5.0 points / Ang**2.
                        Smoothing algorithm: York/Karplus (Gamma=1.0000).
                        Polarization charges: spherical gaussians, with
                                              point-specific exponents (IZeta= 3).
                        Self-potential: point-specific (ISelfS= 7).
                        Self-field    : sphere-specific E.n sum rule (ISelfD= 2).
 1st derivatives      : Analytical E(r).r(x)/FMM algorithm (CHGder, D1EAlg=3).
                        Cavity 1st derivative terms included.
 Solvent              : TetraHydroFuran, Eps=   7.425700 Eps(inf)=   1.974025
 ------------------------------------------------------------------------------
 Spheres list:
 ISph  on   Nord     Re0    Alpha      Xe            Ye            Ze
    1   C      1    1.9255  1.100     -3.187987      0.255984      0.218915
    2   N      2    1.8300  1.100     -1.750898      0.146462      0.121788
    3   C      3    1.9255  1.100     -1.093722     -1.025436     -0.250803
    4   O      4    1.7500  1.100     -1.637755     -2.064441     -0.531060
    5   C      5    1.9255  1.100      0.365632     -0.701610     -0.221495
    6   C      6    1.9255  1.100      1.467283     -1.493628     -0.502593
    7   C      7    1.9255  1.100      2.731223     -0.900794     -0.386239
    8   C      8    1.9255  1.100      2.868982      0.437223     -0.001409
    9   C      9    1.9255  1.100      1.747385      1.227948      0.280207
   10   C     10    1.9255  1.100      0.502819      0.630400      0.161648
   11   C     11    1.9255  1.100     -0.864477      1.191846      0.387671
   12   O     12    1.7500  1.100     -1.178801      2.304959      0.727782
   13   H     13    1.4430  1.100     -3.657864      0.010432     -0.746743
   14   H     14    1.4430  1.100     -3.576211     -0.427007      0.991292
   15   H     15    1.4430  1.100     -3.430589      1.292991      0.491320
   16   H     16    1.4430  1.100      1.352531     -2.538080     -0.802626
   17   H     17    1.4430  1.100      3.625859     -1.492051     -0.599352
   18   H     18    1.4430  1.100      3.869142      0.871189      0.080413
   19   H     19    1.4430  1.100      1.847448      2.273611      0.581285
 ------------------------------------------------------------------------------
 GePol: Number of generator spheres                  =      19
 GePol: Total number of spheres                      =      19
 GePol: Number of exposed spheres                    =      19 (100.00%)
 GePol: Number of points                             =    1662
 GePol: Average weight of points                     =       0.13
 GePol: Minimum weight of points                     =   0.28D-09
 GePol: Maximum weight of points                     =    0.20577
 GePol: Number of points with low weight             =     105
 GePol: Fraction of low-weight points (<1% of avg)   =       6.32%
 GePol: Cavity surface area                          =    216.038 Ang**2
 GePol: Cavity volume                                =    219.200 Ang**3
 Leave Link  301 at Wed Feb 28 21:00:38 2024, MaxMem=  2147483648 cpu:               3.1 elap:               0.2
 (Enter /software/gaussian-16RevA.03-el7-x86_64/g16/l302.exe)
 NPDir=0 NMtPBC=     1 NCelOv=     1 NCel=       1 NClECP=     1 NCelD=      1
         NCelK=      1 NCelE2=     1 NClLst=     1 CellRange=     0.0.
 One-electron integrals computed using PRISM.
   1 Symmetry operations used in ECPInt.
 ECPInt:  NShTT=    3741 NPrTT=   15055 LenC2=    3665 LenP2D=   11025.
 LDataN:  DoStor=T MaxTD1= 4 Len=   56
 NBasis=   182 RedAO= T EigKep=  2.79D-04  NBF=   182
 NBsUse=   182 1.00D-06 EigRej= -1.00D+00 NBFU=   182
 Precomputing XC quadrature grid using
 IXCGrd= 4 IRadAn=           5 IRanWt=          -1 IRanGd=           0 AccXCQ= 0.00D+00.
 Generated NRdTot=       0 NPtTot=           0 NUsed=           0 NTot=          32
 NSgBfM=   193   193   193   193   193 MxSgAt=    19 MxSgA2=    19.
 Leave Link  302 at Wed Feb 28 21:00:38 2024, MaxMem=  2147483648 cpu:               5.2 elap:               0.2
 (Enter /software/gaussian-16RevA.03-el7-x86_64/g16/l303.exe)
 DipDrv:  MaxL=1.
 Leave Link  303 at Wed Feb 28 21:00:38 2024, MaxMem=  2147483648 cpu:               2.2 elap:               0.1
 (Enter /software/gaussian-16RevA.03-el7-x86_64/g16/l401.exe)
 Lowest energy guess from the checkpoint file:  "NMPHTH-cavity-in-THF-wB97XD.chk"
 B after Tr=    -0.000081   -0.000218   -0.000676
         Rot=    0.999993   -0.003620    0.000368    0.000113 Ang=  -0.42 deg.
 Guess basis will be translated and rotated to current coordinates.
 B after Tr=     0.001620   -0.002170    0.004893
         Rot=    0.999754    0.021997   -0.002270   -0.001798 Ang=   2.54 deg.
 Guess basis will be translated and rotated to current coordinates.
 CkInt1:  FT= 8.04D-02
 Max alpha theta= 11.750 degrees.
 JPrj=2 DoOrth=T DoCkMO=T.
 Leave Link  401 at Wed Feb 28 21:00:38 2024, MaxMem=  2147483648 cpu:               3.5 elap:               0.1
 (Enter /software/gaussian-16RevA.03-el7-x86_64/g16/l502.exe)
 Two-electron integral symmetry not used.
 Closed shell SCF:
 Using DIIS extrapolation, IDIIS=  1040.
 NGot=  2147483648 LenX=  2147401213 LenY=  2147363136
 Requested convergence on RMS density matrix=1.00D-08 within  32 cycles.
 Requested convergence on MAX density matrix=1.00D-06.
 Requested convergence on             energy=1.00D-06.
 No special actions if energy rises.
 Fock matrices will be formed incrementally for  20 cycles.

 Cycle   1  Pass 1  IDiag  1:
 FoFJK:  IHMeth= 1 ICntrl=       0 DoSepK=T KAlg= 0 I1Cent=           0 FoldK=F
 IRaf=         1 NMat=       1 IRICut=       1 DoRegI=T DoRafI=F ISym2E= 0 IDoP0=0 IntGTp=1.
 FoFCou: FMM=F IPFlag=           0 FMFlag=      100000 FMFlg1=           0
         NFxFlg=           0 DoJE=T BraDBF=F KetDBF=F FulRan=T
         wScrn=  0.000000 ICntrl=       500 IOpCl=  0 I1Cent=           0 NGrid=           0
         NMat0=    1 NMatS0=      1 NMatT0=    0 NMatD0=    1 NMtDS0=    0 NMtDT0=    0
 Symmetry not used in FoFCou.
 Inv3:  Mode=1 IEnd=     8286732.
 Iteration    1 A*A^-1 deviation from unit magnitude is 4.22D-15 for    595.
 Iteration    1 A*A^-1 deviation from orthogonality  is 2.00D-15 for   1518      5.
 Iteration    1 A^-1*A deviation from unit magnitude is 4.00D-15 for    595.
 Iteration    1 A^-1*A deviation from orthogonality  is 1.55D-15 for   1483      9.
 E= -551.820350823716    
 DIIS: error= 2.16D-03 at cycle   1 NSaved=   1.
 NSaved= 1 IEnMin= 1 EnMin= -551.820350823716     IErMin= 1 ErrMin= 2.16D-03
 ErrMax= 2.16D-03  0.00D+00 EMaxC= 1.00D-01 BMatC= 2.77D-04 BMatP= 2.77D-04
 IDIUse=3 WtCom= 9.78D-01 WtEn= 2.16D-02
 Coeff-Com:  0.100D+01
 Coeff-En:   0.100D+01
 Coeff:      0.100D+01
 Gap=    10.808 Goal=   None    Shift=    0.000
 GapD=   10.808 DampG=2.000 DampE=1.000 DampFc=2.0000 IDamp=-1.
 RMSDP=1.63D-04 MaxDP=5.68D-03              OVMax= 8.23D-03

 Cycle   2  Pass 1  IDiag  1:
 RMSU=  1.63D-04    CP:  1.00D+00
 E= -551.820866358353     Delta-E=       -0.000515534637 Rises=F Damp=F
 DIIS: error= 4.31D-04 at cycle   2 NSaved=   2.
 NSaved= 2 IEnMin= 2 EnMin= -551.820866358353     IErMin= 2 ErrMin= 4.31D-04
 ErrMax= 4.31D-04  0.00D+00 EMaxC= 1.00D-01 BMatC= 1.27D-05 BMatP= 2.77D-04
 IDIUse=3 WtCom= 9.96D-01 WtEn= 4.31D-03
 Coeff-Com: -0.221D+00 0.122D+01
 Coeff-En:   0.000D+00 0.100D+01
 Coeff:     -0.220D+00 0.122D+01
 Gap=     0.328 Goal=   None    Shift=    0.000
 RMSDP=4.68D-05 MaxDP=1.70D-03 DE=-5.16D-04 OVMax= 2.66D-03

 Cycle   3  Pass 1  IDiag  1:
 RMSU=  2.91D-05    CP:  1.00D+00  1.23D+00
 E= -551.820897364017     Delta-E=       -0.000031005664 Rises=F Damp=F
 DIIS: error= 9.18D-05 at cycle   3 NSaved=   3.
 NSaved= 3 IEnMin= 3 EnMin= -551.820897364017     IErMin= 3 ErrMin= 9.18D-05
 ErrMax= 9.18D-05  0.00D+00 EMaxC= 1.00D-01 BMatC= 1.35D-06 BMatP= 1.27D-05
 IDIUse=1 WtCom= 1.00D+00 WtEn= 0.00D+00
 Coeff-Com: -0.829D-01 0.401D+00 0.682D+00
 Coeff:     -0.829D-01 0.401D+00 0.682D+00
 Gap=     0.328 Goal=   None    Shift=    0.000
 RMSDP=9.23D-06 MaxDP=3.07D-04 DE=-3.10D-05 OVMax= 3.32D-04

 Cycle   4  Pass 1  IDiag  1:
 RMSU=  8.85D-06    CP:  1.00D+00  1.23D+00  1.07D+00
 E= -551.820898645843     Delta-E=       -0.000001281826 Rises=F Damp=F
 DIIS: error= 3.69D-05 at cycle   4 NSaved=   4.
 NSaved= 4 IEnMin= 4 EnMin= -551.820898645843     IErMin= 4 ErrMin= 3.69D-05
 ErrMax= 3.69D-05  0.00D+00 EMaxC= 1.00D-01 BMatC= 2.59D-07 BMatP= 1.35D-06
 IDIUse=1 WtCom= 1.00D+00 WtEn= 0.00D+00
 Coeff-Com:  0.906D-02-0.758D-01 0.259D+00 0.808D+00
 Coeff:      0.906D-02-0.758D-01 0.259D+00 0.808D+00
 Gap=     0.328 Goal=   None    Shift=    0.000
 RMSDP=4.88D-06 MaxDP=1.37D-04 DE=-1.28D-06 OVMax= 1.66D-04

 Cycle   5  Pass 1  IDiag  1:
 RMSU=  2.85D-06    CP:  1.00D+00  1.24D+00  1.20D+00  9.13D-01
 E= -551.820898887090     Delta-E=       -0.000000241247 Rises=F Damp=F
 DIIS: error= 1.34D-05 at cycle   5 NSaved=   5.
 NSaved= 5 IEnMin= 5 EnMin= -551.820898887090     IErMin= 5 ErrMin= 1.34D-05
 ErrMax= 1.34D-05  0.00D+00 EMaxC= 1.00D-01 BMatC= 5.23D-08 BMatP= 2.59D-07
 IDIUse=1 WtCom= 1.00D+00 WtEn= 0.00D+00
 Coeff-Com:  0.131D-01-0.808D-01 0.612D-01 0.421D+00 0.585D+00
 Coeff:      0.131D-01-0.808D-01 0.612D-01 0.421D+00 0.585D+00
 Gap=     0.328 Goal=   None    Shift=    0.000
 RMSDP=1.52D-06 MaxDP=4.28D-05 DE=-2.41D-07 OVMax= 4.73D-05

 Cycle   6  Pass 1  IDiag  1:
 RMSU=  8.79D-07    CP:  1.00D+00  1.24D+00  1.23D+00  9.84D-01  7.73D-01
 E= -551.820898933154     Delta-E=       -0.000000046064 Rises=F Damp=F
 DIIS: error= 3.61D-06 at cycle   6 NSaved=   6.
 NSaved= 6 IEnMin= 6 EnMin= -551.820898933154     IErMin= 6 ErrMin= 3.61D-06
 ErrMax= 3.61D-06  0.00D+00 EMaxC= 1.00D-01 BMatC= 1.09D-09 BMatP= 5.23D-08
 IDIUse=1 WtCom= 1.00D+00 WtEn= 0.00D+00
 Coeff-Com:  0.359D-02-0.213D-01 0.678D-02 0.903D-01 0.178D+00 0.742D+00
 Coeff:      0.359D-02-0.213D-01 0.678D-02 0.903D-01 0.178D+00 0.742D+00
 Gap=     0.328 Goal=   None    Shift=    0.000
 RMSDP=3.14D-07 MaxDP=8.39D-06 DE=-4.61D-08 OVMax= 1.17D-05

 Cycle   7  Pass 1  IDiag  1:
 RMSU=  2.28D-07    CP:  1.00D+00  1.24D+00  1.23D+00  9.93D-01  8.26D-01
                    CP:  1.04D+00
 E= -551.820898934201     Delta-E=       -0.000000001047 Rises=F Damp=F
 DIIS: error= 2.08D-06 at cycle   7 NSaved=   7.
 NSaved= 7 IEnMin= 7 EnMin= -551.820898934201     IErMin= 7 ErrMin= 2.08D-06
 ErrMax= 2.08D-06  0.00D+00 EMaxC= 1.00D-01 BMatC= 3.07D-10 BMatP= 1.09D-09
 IDIUse=1 WtCom= 1.00D+00 WtEn= 0.00D+00
 Coeff-Com: -0.321D-03 0.244D-02-0.672D-02-0.234D-01-0.419D-02 0.355D+00
 Coeff-Com:  0.677D+00
 Coeff:     -0.321D-03 0.244D-02-0.672D-02-0.234D-01-0.419D-02 0.355D+00
 Coeff:      0.677D+00
 Gap=     0.328 Goal=   None    Shift=    0.000
 RMSDP=1.45D-07 MaxDP=3.60D-06 DE=-1.05D-09 OVMax= 5.26D-06

 Cycle   8  Pass 1  IDiag  1:
 RMSU=  8.49D-08    CP:  1.00D+00  1.24D+00  1.24D+00  9.95D-01  8.45D-01
                    CP:  1.13D+00  8.69D-01
 E= -551.820898934499     Delta-E=       -0.000000000299 Rises=F Damp=F
 DIIS: error= 3.43D-07 at cycle   8 NSaved=   8.
 NSaved= 8 IEnMin= 8 EnMin= -551.820898934499     IErMin= 8 ErrMin= 3.43D-07
 ErrMax= 3.43D-07  0.00D+00 EMaxC= 1.00D-01 BMatC= 3.06D-11 BMatP= 3.07D-10
 IDIUse=1 WtCom= 1.00D+00 WtEn= 0.00D+00
 Coeff-Com: -0.464D-03 0.299D-02-0.338D-02-0.186D-01-0.181D-01 0.828D-01
 Coeff-Com:  0.299D+00 0.655D+00
 Coeff:     -0.464D-03 0.299D-02-0.338D-02-0.186D-01-0.181D-01 0.828D-01
 Coeff:      0.299D+00 0.655D+00
 Gap=     0.328 Goal=   None    Shift=    0.000
 RMSDP=4.77D-08 MaxDP=1.19D-06 DE=-2.99D-10 OVMax= 2.53D-06

 Cycle   9  Pass 1  IDiag  1:
 RMSU=  3.59D-08    CP:  1.00D+00  1.24D+00  1.24D+00  9.95D-01  8.50D-01
                    CP:  1.15D+00  9.52D-01  9.46D-01
 E= -551.820898934535     Delta-E=       -0.000000000035 Rises=F Damp=F
 DIIS: error= 1.37D-07 at cycle   9 NSaved=   9.
 NSaved= 9 IEnMin= 9 EnMin= -551.820898934535     IErMin= 9 ErrMin= 1.37D-07
 ErrMax= 1.37D-07  0.00D+00 EMaxC= 1.00D-01 BMatC= 3.85D-12 BMatP= 3.06D-11
 IDIUse=1 WtCom= 1.00D+00 WtEn= 0.00D+00
 Coeff-Com: -0.113D-03 0.672D-03-0.144D-03-0.301D-02-0.544D-02-0.251D-01
 Coeff-Com: -0.110D-02 0.226D+00 0.809D+00
 Coeff:     -0.113D-03 0.672D-03-0.144D-03-0.301D-02-0.544D-02-0.251D-01
 Coeff:     -0.110D-02 0.226D+00 0.809D+00
 Gap=     0.328 Goal=   None    Shift=    0.000
 RMSDP=2.51D-08 MaxDP=5.75D-07 DE=-3.55D-11 OVMax= 2.02D-06

 Cycle  10  Pass 1  IDiag  1:
 RMSU=  1.36D-08    CP:  1.00D+00  1.24D+00  1.24D+00  9.95D-01  8.53D-01
                    CP:  1.16D+00  9.81D-01  1.13D+00  1.17D+00
 E= -551.820898934550     Delta-E=       -0.000000000015 Rises=F Damp=F
 DIIS: error= 7.57D-08 at cycle  10 NSaved=  10.
 NSaved=10 IEnMin=10 EnMin= -551.820898934550     IErMin=10 ErrMin= 7.57D-08
 ErrMax= 7.57D-08  0.00D+00 EMaxC= 1.00D-01 BMatC= 7.33D-13 BMatP= 3.85D-12
 IDIUse=1 WtCom= 1.00D+00 WtEn= 0.00D+00
 Coeff-Com:  0.757D-04-0.509D-03 0.817D-03 0.360D-02 0.259D-02-0.300D-01
 Coeff-Com: -0.772D-01-0.773D-01 0.270D+00 0.908D+00
 Coeff:      0.757D-04-0.509D-03 0.817D-03 0.360D-02 0.259D-02-0.300D-01
 Coeff:     -0.772D-01-0.773D-01 0.270D+00 0.908D+00
 Gap=     0.328 Goal=   None    Shift=    0.000
 RMSDP=1.51D-08 MaxDP=4.22D-07 DE=-1.51D-11 OVMax= 1.50D-06

 Cycle  11  Pass 1  IDiag  1:
 RMSU=  6.15D-09    CP:  1.00D+00  1.24D+00  1.24D+00  9.95D-01  8.53D-01
                    CP:  1.16D+00  1.00D+00  1.22D+00  1.42D+00  1.20D+00
 E= -551.820898934549     Delta-E=        0.000000000001 Rises=F Damp=F
 DIIS: error= 2.99D-08 at cycle  11 NSaved=  11.
 NSaved=11 IEnMin=10 EnMin= -551.820898934550     IErMin=11 ErrMin= 2.99D-08
 ErrMax= 2.99D-08  0.00D+00 EMaxC= 1.00D-01 BMatC= 6.51D-14 BMatP= 7.33D-13
 IDIUse=1 WtCom= 1.00D+00 WtEn= 0.00D+00
 Coeff-Com:  0.213D-04-0.132D-03 0.956D-04 0.717D-03 0.982D-03 0.343D-03
 Coeff-Com: -0.707D-02-0.366D-01-0.849D-01 0.777D-01 0.105D+01
 Coeff:      0.213D-04-0.132D-03 0.956D-04 0.717D-03 0.982D-03 0.343D-03
 Coeff:     -0.707D-02-0.366D-01-0.849D-01 0.777D-01 0.105D+01
 Gap=     0.328 Goal=   None    Shift=    0.000
 RMSDP=5.97D-09 MaxDP=1.78D-07 DE= 1.25D-12 OVMax= 6.48D-07

 Error on total polarization charges =  0.00675
 SCF Done:  E(RwB97XD) =  -551.820898935     A.U. after   11 cycles
            NFock= 11  Conv=0.60D-08     -V/T= 2.0095
 KE= 5.466509636524D+02 PE=-2.597070550337D+03 EE= 8.422329810728D+02
 Leave Link  502 at Wed Feb 28 21:00:49 2024, MaxMem=  2147483648 cpu:             287.8 elap:              10.6
 (Enter /software/gaussian-16RevA.03-el7-x86_64/g16/l508.exe)
 QCSCF skips out because SCF is already converged.
 Leave Link  508 at Wed Feb 28 21:00:49 2024, MaxMem=  2147483648 cpu:               1.3 elap:               0.1
 (Enter /software/gaussian-16RevA.03-el7-x86_64/g16/l801.exe)
 DoSCS=F DFT=T ScalE2(SS,OS)=  1.000000  1.000000
 Range of M.O.s used for correlation:     1   182
 NBasis=   182 NAE=    42 NBE=    42 NFC=     0 NFV=     0
 NROrb=    182 NOA=    42 NOB=    42 NVA=   140 NVB=   140

 **** Warning!!: The largest alpha MO coefficient is  0.16799451D+02

 Leave Link  801 at Wed Feb 28 21:00:49 2024, MaxMem=  2147483648 cpu:               0.7 elap:               0.0
 (Enter /software/gaussian-16RevA.03-el7-x86_64/g16/l1101.exe)
 Leave Link 1101 at Wed Feb 28 21:00:49 2024, MaxMem=  2147483648 cpu:               2.1 elap:               0.1
 (Enter /software/gaussian-16RevA.03-el7-x86_64/g16/l1102.exe)
 Symmetrizing basis deriv contribution to polar:
 IMax=3 JMax=2 DiffMx= 0.00D+00
 Leave Link 1102 at Wed Feb 28 21:00:49 2024, MaxMem=  2147483648 cpu:               1.4 elap:               0.1
 (Enter /software/gaussian-16RevA.03-el7-x86_64/g16/l1110.exe)
 Leave Link 1110 at Wed Feb 28 21:00:49 2024, MaxMem=  2147483648 cpu:               0.6 elap:               0.0
 (Enter /software/gaussian-16RevA.03-el7-x86_64/g16/l1002.exe)
 Minotr:  Closed shell wavefunction.
 Leave Link 1002 at Wed Feb 28 21:00:49 2024, MaxMem=  2147483648 cpu:               2.3 elap:               0.1
 (Enter /software/gaussian-16RevA.03-el7-x86_64/g16/l701.exe)
 ... and contract with generalized density number  0.
 Compute integral first derivatives.
 R6Disp: Adding Grimme-D2 dispersion energy 1st derivatives to the gradient.
   1 Symmetry operations used in ECPInt.
 ECPInt:  NShTT=    3741 NPrTT=   15055 LenC2=    3665 LenP2D=   11025.
 LDataN:  DoStor=T MaxTD1= 5 Len=  102
 D1PCM: PCM CHGder 1st derivatives, ID1Alg=3 FixD1E=F DoIter=F DoCFld=F I1PDM=0.
 GePol: Maximum number of non-zero 1st derivatives   =     213
 Leave Link  701 at Wed Feb 28 21:00:50 2024, MaxMem=  2147483648 cpu:              19.1 elap:               0.7
 (Enter /software/gaussian-16RevA.03-el7-x86_64/g16/l702.exe)
 L702 exits ... SP integral derivatives will be done elsewhere.
 Leave Link  702 at Wed Feb 28 21:00:50 2024, MaxMem=  2147483648 cpu:               1.8 elap:               0.1
 (Enter /software/gaussian-16RevA.03-el7-x86_64/g16/l703.exe)
 Integral derivatives from FoFJK, PRISM(SPDF).
 Compute integral first derivatives, UseDBF=F ICtDFT=           0.
 Calling FoFJK, ICntrl=      2127 FMM=F ISym2X=0 I1Cent= 0 IOpClX= 0 NMat=1 NMatS=1 NMatT=0.
 FoFJK:  IHMeth= 1 ICntrl=    2127 DoSepK=T KAlg= 0 I1Cent=           0 FoldK=F
 IRaf=         1 NMat=       1 IRICut=       1 DoRegI=T DoRafI=F ISym2E= 0 IDoP0=0 IntGTp=1.
 FoFCou: FMM=F IPFlag=           0 FMFlag=      100000 FMFlg1=         800
         NFxFlg=           0 DoJE=F BraDBF=F KetDBF=F FulRan=T
         wScrn=  0.000000 ICntrl=      2527 IOpCl=  0 I1Cent=           0 NGrid=           0
         NMat0=    1 NMatS0=      1 NMatT0=    0 NMatD0=    1 NMtDS0=    0 NMtDT0=    0
 Symmetry not used in FoFCou.
 Leave Link  703 at Wed Feb 28 21:00:52 2024, MaxMem=  2147483648 cpu:              52.5 elap:               1.9
 (Enter /software/gaussian-16RevA.03-el7-x86_64/g16/l716.exe)
 Dipole        = 1.11527731D+00-8.00838959D-02-7.43846543D-02
 Polarizability= 0.00000000D+00 0.00000000D+00 0.00000000D+00
                 0.00000000D+00 0.00000000D+00 0.00000000D+00
 -------------------------------------------------------------------
 Center     Atomic                   Forces (Hartrees/Bohr)
 Number     Number              X              Y              Z
 -------------------------------------------------------------------
      1        6          -0.000059959   -0.000282079   -0.000194472
      2        7           0.000169648    0.000177156   -0.000088250
      3        6          -0.000036054    0.000287978    0.000096412
      4        8           0.000016561    0.000077321    0.000047765
      5        6          -0.000129620   -0.000045312   -0.000014913
      6        6          -0.000024025   -0.000008302   -0.000007999
      7        6           0.000010557   -0.000026779   -0.000007392
      8        6           0.000013622    0.000026929    0.000005313
      9        6          -0.000017943    0.000026461    0.000007231
     10        6          -0.000132314    0.000082809    0.000027467
     11        6          -0.000083383   -0.000214502    0.000012585
     12        8           0.000199424    0.000035683   -0.000037081
     13        1          -0.000004287   -0.000035360    0.000078642
     14        1          -0.000162808   -0.000028712    0.000013749
     15        1           0.000273087   -0.000080626    0.000056839
     16        1           0.000002266    0.000029561    0.000006952
     17        1          -0.000012968    0.000010139    0.000005134
     18        1          -0.000016696   -0.000004784    0.000000217
     19        1          -0.000005109   -0.000027581   -0.000008198
 -------------------------------------------------------------------
 Cartesian Forces:  Max     0.000287978 RMS     0.000098764
 Leave Link  716 at Wed Feb 28 21:00:52 2024, MaxMem=  2147483648 cpu:               0.9 elap:               0.1
 (Enter /software/gaussian-16RevA.03-el7-x86_64/g16/l103.exe)

 GradGradGradGradGradGradGradGradGradGradGradGradGradGradGradGradGradGrad
 Berny optimization.
 Using GEDIIS/GDIIS optimizer.
 FormGI is forming the generalized inverse of G from B-inverse, IUseBI=4.
 Internal  Forces:  Max     0.000421027 RMS     0.000088950
 Step   5 in ReCalcFC=50 IGetFC= 0 update Hessian.
 Search for a local minimum.
 Step number   5 out of a maximum of  114
 All quantities printed in internal units (Hartrees-Bohrs-Radians)
 RMS Force = .88950D-04 SwitMx=.10000D-02 MixMth= 2
 Mixed Optimization -- En-DIIS/RFO-DIIS
 Update second derivatives using D2CorX and points    1    2    3    5
 DE= -2.27D-06 DEPred=-1.09D-04 R= 2.08D-02
 Trust test= 2.08D-02 RLast= 2.70D-01 DXMaxT set to 1.32D-01
 ITU= -1 -1  1  1  0
 Use linear search instead of GDIIS.
     Eigenvalues ---    0.00042   0.00619   0.01011   0.01489   0.01617
     Eigenvalues ---    0.01799   0.01863   0.02150   0.02428   0.02713
     Eigenvalues ---    0.03028   0.03197   0.04320   0.04939   0.06079
     Eigenvalues ---    0.06379   0.10714   0.10771   0.12098   0.12459
     Eigenvalues ---    0.13467   0.14803   0.16814   0.18665   0.18933
     Eigenvalues ---    0.19516   0.19925   0.20380   0.23235   0.24438
     Eigenvalues ---    0.27415   0.28547   0.30463   0.34936   0.35791
     Eigenvalues ---    0.35970   0.36628   0.37086   0.37497   0.37536
     Eigenvalues ---    0.38152   0.38387   0.40873   0.41883   0.43357
     Eigenvalues ---    0.43848   0.49032   0.51106   0.53947   0.86046
     Eigenvalues ---    1.04554
 RFO step:  Lambda=-5.32933440D-07 EMin= 4.18014683D-04
 Quartic linear search produced a step of -0.43606.
 Iteration  1 RMS(Cart)=  0.01413784 RMS(Int)=  0.00025978
 Iteration  2 RMS(Cart)=  0.00026820 RMS(Int)=  0.00000038
 Iteration  3 RMS(Cart)=  0.00000007 RMS(Int)=  0.00000038
 ITry= 1 IFail=0 DXMaxC= 7.41D-02 DCOld= 1.00D+10 DXMaxT= 1.32D-01 DXLimC= 3.00D+00 Rises=F
 Variable       Old X    -DE/DX   Delta X   Delta X   Delta X     New X
                                 (Linear)    (Quad)   (Total)
    R1        2.72976  -0.00008  -0.00007  -0.00007  -0.00013   2.72962
    R2        2.08177  -0.00006   0.00026  -0.00011   0.00014   2.08191
    R3        2.08193   0.00008  -0.00023   0.00008  -0.00015   2.08178
    R4        2.07736  -0.00012  -0.00009  -0.00012  -0.00021   2.07715
    R5        2.63483  -0.00036  -0.00046  -0.00019  -0.00065   2.63418
    R6        2.63836  -0.00004  -0.00032  -0.00001  -0.00032   2.63804
    R7        2.27871  -0.00009   0.00003  -0.00008  -0.00005   2.27865
    R8        2.82540  -0.00019  -0.00061  -0.00004  -0.00064   2.82476
    R9        2.61844  -0.00003  -0.00002  -0.00003  -0.00004   2.61840
   R10        2.63200  -0.00006  -0.00000  -0.00004  -0.00004   2.63195
   R11        2.64733  -0.00000   0.00001  -0.00001  -0.00000   2.64732
   R12        2.06497  -0.00003  -0.00001  -0.00005  -0.00006   2.06491
   R13        2.64383   0.00002   0.00001   0.00001   0.00002   2.64385
   R14        2.06610  -0.00002  -0.00000  -0.00003  -0.00003   2.06607
   R15        2.64733  -0.00000   0.00001  -0.00001   0.00000   2.64733
   R16        2.06607  -0.00002  -0.00000  -0.00003  -0.00003   2.06603
   R17        2.61852  -0.00002  -0.00001  -0.00002  -0.00003   2.61849
   R18        2.06497  -0.00003  -0.00001  -0.00005  -0.00006   2.06491
   R19        2.82563  -0.00019  -0.00050   0.00000  -0.00050   2.82514
   R20        2.27827  -0.00003   0.00003  -0.00007  -0.00004   2.27823
    A1        1.92676   0.00008   0.00219  -0.00011   0.00208   1.92884
    A2        1.92912   0.00025  -0.00138   0.00054  -0.00084   1.92828
    A3        1.88361  -0.00042  -0.00125  -0.00062  -0.00187   1.88174
    A4        1.90293  -0.00011  -0.00003  -0.00036  -0.00039   1.90253
    A5        1.91066   0.00016  -0.00026   0.00055   0.00029   1.91095
    A6        1.91062   0.00004   0.00073   0.00000   0.00073   1.91135
    A7        2.15388  -0.00024  -0.00048  -0.00039  -0.00087   2.15301
    A8        2.16767   0.00025   0.00062   0.00045   0.00107   2.16873
    A9        1.96164  -0.00001  -0.00014  -0.00006  -0.00020   1.96144
   A10        2.18177  -0.00007  -0.00022  -0.00013  -0.00034   2.18143
   A11        1.84707   0.00008   0.00026   0.00014   0.00040   1.84747
   A12        2.25434  -0.00001  -0.00004  -0.00001  -0.00006   2.25428
   A13        2.27609   0.00002   0.00016   0.00008   0.00024   2.27632
   A14        1.88459  -0.00004  -0.00019  -0.00010  -0.00029   1.88430
   A15        2.12251   0.00002   0.00003   0.00002   0.00005   2.12256
   A16        2.04720  -0.00001  -0.00003  -0.00003  -0.00006   2.04715
   A17        2.11595   0.00000   0.00002   0.00000   0.00002   2.11598
   A18        2.12003   0.00001   0.00001   0.00002   0.00003   2.12006
   A19        2.11344  -0.00001   0.00001   0.00000   0.00001   2.11345
   A20        2.08659   0.00000   0.00000   0.00001   0.00001   2.08660
   A21        2.08315   0.00000  -0.00001  -0.00001  -0.00002   2.08313
   A22        2.11329  -0.00001   0.00002   0.00001   0.00003   2.11332
   A23        2.08320   0.00000  -0.00001  -0.00001  -0.00003   2.08317
   A24        2.08670   0.00000  -0.00000   0.00000   0.00000   2.08670
   A25        2.04709  -0.00001  -0.00003  -0.00003  -0.00006   2.04704
   A26        2.12022   0.00001   0.00002   0.00003   0.00004   2.12026
   A27        2.11587   0.00000   0.00001   0.00000   0.00002   2.11588
   A28        2.12283   0.00001   0.00001   0.00002   0.00003   2.12286
   A29        1.88663  -0.00002   0.00000   0.00003   0.00003   1.88666
   A30        2.27372   0.00000  -0.00001  -0.00004  -0.00005   2.27367
   A31        1.84485  -0.00002   0.00006  -0.00000   0.00006   1.84491
   A32        2.18892   0.00024   0.00043   0.00034   0.00076   2.18968
   A33        2.24942  -0.00022  -0.00049  -0.00033  -0.00083   2.24860
    D1       -1.01559  -0.00006  -0.04711   0.00427  -0.04284  -1.05844
    D2        2.12617  -0.00005  -0.04894   0.00524  -0.04371   2.08247
    D3        1.09120   0.00002  -0.04663   0.00411  -0.04252   1.04868
    D4       -2.05022   0.00004  -0.04845   0.00507  -0.04338  -2.09361
    D5       -3.10313  -0.00004  -0.04731   0.00404  -0.04327   3.13679
    D6        0.03864  -0.00003  -0.04914   0.00501  -0.04413  -0.00549
    D7        0.00092  -0.00001  -0.00191   0.00057  -0.00134  -0.00042
    D8       -3.14115   0.00000  -0.00162   0.00066  -0.00096   3.14108
    D9       -3.14083  -0.00002  -0.00027  -0.00029  -0.00057  -3.14140
   D10        0.00029  -0.00001   0.00001  -0.00020  -0.00019   0.00010
   D11        3.14144  -0.00000   0.00159  -0.00072   0.00087  -3.14088
   D12        0.00004  -0.00002   0.00182  -0.00097   0.00086   0.00089
   D13        0.00000   0.00001  -0.00006   0.00015   0.00009   0.00009
   D14       -3.14140  -0.00001   0.00017  -0.00010   0.00007  -3.14132
   D15        3.14139   0.00000  -0.00024   0.00017  -0.00007   3.14132
   D16       -0.00049   0.00001   0.00006   0.00016   0.00022  -0.00027
   D17       -0.00070   0.00001   0.00006   0.00028   0.00033  -0.00037
   D18        3.14061   0.00001   0.00035   0.00026   0.00062   3.14122
   D19        3.14127   0.00000   0.00026   0.00001   0.00028   3.14155
   D20       -0.00039   0.00000   0.00022   0.00002   0.00023  -0.00016
   D21       -0.00000  -0.00000  -0.00007   0.00003  -0.00004  -0.00005
   D22        3.14152  -0.00000  -0.00012   0.00003  -0.00008   3.14143
   D23       -3.14130   0.00000  -0.00023   0.00000  -0.00023  -3.14153
   D24        0.00049   0.00000  -0.00009  -0.00007  -0.00017   0.00033
   D25        0.00004   0.00000   0.00003  -0.00001   0.00003   0.00007
   D26       -3.14135   0.00000   0.00017  -0.00008   0.00009  -3.14126
   D27       -0.00003  -0.00000   0.00004  -0.00002   0.00002  -0.00001
   D28       -3.14158  -0.00000   0.00002  -0.00002  -0.00000  -3.14158
   D29       -3.14155  -0.00000   0.00009  -0.00002   0.00006  -3.14149
   D30        0.00009  -0.00000   0.00007  -0.00003   0.00004   0.00013
   D31        0.00003   0.00000   0.00003  -0.00001   0.00002   0.00005
   D32        3.14157   0.00000  -0.00000  -0.00001  -0.00001   3.14156
   D33        3.14158   0.00000   0.00004  -0.00000   0.00004  -3.14157
   D34       -0.00007   0.00000   0.00001  -0.00001   0.00001  -0.00006
   D35        0.00001   0.00000  -0.00007   0.00003  -0.00004  -0.00003
   D36       -3.14158  -0.00000  -0.00007   0.00002  -0.00006   3.14154
   D37       -3.14153   0.00000  -0.00003   0.00003  -0.00000  -3.14154
   D38        0.00006   0.00000  -0.00004   0.00002  -0.00003   0.00003
   D39       -0.00004  -0.00000   0.00004  -0.00002   0.00001  -0.00003
   D40        3.14130  -0.00000  -0.00014   0.00007  -0.00006   3.14124
   D41        3.14155  -0.00000   0.00004  -0.00001   0.00004   3.14158
   D42       -0.00029  -0.00000  -0.00013   0.00009  -0.00004  -0.00033
   D43       -0.00032  -0.00001   0.00010  -0.00004   0.00005  -0.00026
   D44        3.14107   0.00002  -0.00015   0.00022   0.00007   3.14114
   D45        3.14150  -0.00001   0.00025  -0.00013   0.00013  -3.14156
   D46       -0.00030   0.00002   0.00001   0.00013   0.00014  -0.00016
         Item               Value     Threshold  Converged?
 Maximum Force            0.000421     0.000450     YES
 RMS     Force            0.000089     0.000300     YES
 Maximum Displacement     0.074065     0.001800     NO 
 RMS     Displacement     0.014139     0.001200     NO 
 Predicted change in Energy=-3.735436D-06
 Lowest energy point so far.  Saving SCF results.
 Step   5 in ReCalcFC=50 IGetFC= 0 compute gradient.
 GradGradGradGradGradGradGradGradGradGradGradGradGradGradGradGradGradGrad

 Leave Link  103 at Wed Feb 28 21:00:52 2024, MaxMem=  2147483648 cpu:               1.7 elap:               0.1
 (Enter /software/gaussian-16RevA.03-el7-x86_64/g16/l202.exe)
                          Input orientation:                          
 ---------------------------------------------------------------------
 Center     Atomic      Atomic             Coordinates (Angstroms)
 Number     Number       Type             X           Y           Z
 ---------------------------------------------------------------------
      1          6           0       -3.187949    0.255365    0.217991
      2          7           0       -1.750773    0.146858    0.122074
      3          6           0       -1.093523   -1.025915   -0.246325
      4          8           0       -1.637663   -2.066058   -0.521997
      5          6           0        0.365527   -0.702112   -0.219080
      6          6           0        1.467172   -1.494980   -0.497679
      7          6           0        2.731037   -0.901496   -0.383865
      8          6           0        2.868682    0.437926   -0.003885
      9          6           0        1.747055    1.229478    0.275288
     10          6           0        0.502591    0.631261    0.159253
     11          6           0       -0.864475    1.193176    0.383761
     12          8           0       -1.177896    2.307700    0.719985
     13          1           0       -3.656653    0.049273   -0.757501
     14          1           0       -3.579503   -0.456719    0.961772
     15          1           0       -3.427623    1.281566    0.530513
     16          1           0        1.352491   -2.540507   -0.793856
     17          1           0        3.625709   -1.493333   -0.595121
     18          1           0        3.868785    0.872327    0.076052
     19          1           0        1.847010    2.276189    0.572622
 ---------------------------------------------------------------------
                    Distance matrix (angstroms):
                    1          2          3          4          5
     1  C    0.000000
     2  N    1.444454   0.000000
     3  C    2.498778   1.393949   0.000000
     4  O    2.887902   2.307514   1.205811   0.000000
     5  C    3.706074   2.305615   1.494797   2.442310   0.000000
     6  C    5.024544   3.665364   2.615408   3.157011   1.385597
     7  C    6.060936   4.630512   3.829054   4.523364   2.379610
     8  C    6.063442   4.630329   4.230919   5.181266   2.758945
     9  C    5.030551   3.664743   3.664391   4.790881   2.425708
    10  C    3.710098   2.305141   2.336302   3.510031   1.392769
    11  C    2.511075   1.395989   2.318154   3.469989   2.338469
    12  O    2.916228   2.314070   3.471867   4.569865   3.510408
    13  H    1.101700   2.101322   2.826122   2.933669   4.127034
    14  H    1.101630   2.100870   2.821982   2.926138   4.125274
    15  H    1.099182   2.065481   3.372828   3.939330   4.345671
    16  H    5.427369   4.206080   2.928611   3.039742   2.164293
    17  H    7.081316   5.666671   4.755133   5.294946   3.375830
    18  H    7.085074   5.666379   5.322757   6.269987   3.852113
    19  H    5.436939   4.204888   4.496810   5.674174   3.419336
                    6          7          8          9         10
     6  C    0.000000
     7  C    1.400904   0.000000
     8  C    2.438071   1.399065   0.000000
     9  C    2.845784   2.437982   1.400907   0.000000
    10  C    2.425465   2.758676   2.379575   1.385647   0.000000
    11  C    3.666019   4.231383   3.828463   2.614033   1.494998
    12  O    4.789516   5.176599   4.516064   3.148913   2.439037
    13  H    5.357780   6.468860   6.580196   5.626686   4.298657
    14  H    5.355082   6.467726   6.581183   5.629097   4.300143
    15  H    5.720612   6.597798   6.375011   5.181230   4.000914
    16  H    1.092703   2.180559   3.434232   3.938469   3.419190
    17  H    2.160737   1.093315   2.156945   3.420622   3.851863
    18  H    3.420681   2.156952   1.093298   2.160785   3.375840
    19  H    3.938469   3.434248   2.180684   1.092704   2.164284
                   11         12         13         14         15
    11  C    0.000000
    12  O    1.205588   0.000000
    13  H    3.226027   3.664381   0.000000
    14  H    3.229184   3.669903   1.793846   0.000000
    15  H    2.568867   2.479944   1.797215   1.797411   0.000000
    16  H    4.499123   5.674477   5.639132   5.634622   6.261924
    17  H    5.323278   6.265140   7.445724   7.444029   7.662677
    18  H    4.754090   5.286202   7.616065   7.617601   7.321993
    19  H    2.925874   3.028657   6.084299   6.088289   5.367756
                   16         17         18         19
    16  H    0.000000
    17  H    2.510695   0.000000
    18  H    4.328500   2.471013   0.000000
    19  H    5.031141   4.328590   2.510973   0.000000
 Symmetry turned off by external request.
 Stoichiometry    C9H7NO2
 Framework group  C1[X(C9H7NO2)]
 Deg. of freedom    51
 Full point group                 C1      NOp   1
 Rotational constants (GHZ):           1.7407937           0.8646341           0.5798472
 Leave Link  202 at Wed Feb 28 21:00:52 2024, MaxMem=  2147483648 cpu:               0.2 elap:               0.0
 (Enter /software/gaussian-16RevA.03-el7-x86_64/g16/l301.exe)
 Standard basis: def2SVPP (5D, 7F)
 Ernie: Thresh=  0.10000D-02 Tol=  0.10000D-05 Strict=F.
   182 basis functions,   328 primitive gaussians,   194 cartesian basis functions
    42 alpha electrons       42 beta electrons
       nuclear repulsion energy       656.4290756298 Hartrees.
 IExCor= 4639 DFT=T Ex+Corr=wB97XD ExCW=0 ScaHFX=  1.000000
 ScaDFX=  1.000000  1.000000  1.000000  1.000000 ScalE2=  1.000000  1.000000
 IRadAn=      5 IRanWt=     -1 IRanGd=            0 ICorTp=0 IEmpDi=121
 HFx  wShort=  0.000000 wLong=  0.200000 cFull=  0.222036 cShort=  0.000000 cLong=  0.777964
 DFx  wShort=  0.000000 wLong=  0.200000 cFull=  0.000000 cShort=  0.000000 cLong=  1.000000
 NAtoms=   19 NActive=   19 NUniq=   19 SFac= 1.00D+00 NAtFMM=   60 NAOKFM=F Big=F
 Integral buffers will be    131072 words long.
 Raffenetti 2 integral format.
 Two-electron integral symmetry is turned off.
 R6Disp:  Grimme-D2 Dispersion energy=       -0.0100150440 Hartrees.
 Nuclear repulsion after empirical dispersion term =      656.4190605858 Hartrees.
 Force inversion solution in PCM.
 ------------------------------------------------------------------------------
 Polarizable Continuum Model (PCM)
 =================================
 Model                : PCM.
 Atomic radii         : UFF (Universal Force Field).
 Polarization charges : Total charges.
 Charge compensation  : None.
 Solution method      : Matrix inversion.
 Cavity type          : Scaled VdW (van der Waals Surface) (Alpha=1.100).
 Cavity algorithm     : GePol (No added spheres)
                        Default sphere list used, NSphG=   19.
                        Lebedev-Laikov grids with approx.  5.0 points / Ang**2.
                        Smoothing algorithm: York/Karplus (Gamma=1.0000).
                        Polarization charges: spherical gaussians, with
                                              point-specific exponents (IZeta= 3).
                        Self-potential: point-specific (ISelfS= 7).
                        Self-field    : sphere-specific E.n sum rule (ISelfD= 2).
 1st derivatives      : Analytical E(r).r(x)/FMM algorithm (CHGder, D1EAlg=3).
                        Cavity 1st derivative terms included.
 Solvent              : TetraHydroFuran, Eps=   7.425700 Eps(inf)=   1.974025
 ------------------------------------------------------------------------------
 Spheres list:
 ISph  on   Nord     Re0    Alpha      Xe            Ye            Ze
    1   C      1    1.9255  1.100     -3.187949      0.255365      0.217991
    2   N      2    1.8300  1.100     -1.750773      0.146858      0.122074
    3   C      3    1.9255  1.100     -1.093523     -1.025915     -0.246325
    4   O      4    1.7500  1.100     -1.637663     -2.066058     -0.521997
    5   C      5    1.9255  1.100      0.365527     -0.702112     -0.219080
    6   C      6    1.9255  1.100      1.467172     -1.494980     -0.497679
    7   C      7    1.9255  1.100      2.731037     -0.901496     -0.383865
    8   C      8    1.9255  1.100      2.868682      0.437926     -0.003885
    9   C      9    1.9255  1.100      1.747055      1.229478      0.275288
   10   C     10    1.9255  1.100      0.502591      0.631261      0.159253
   11   C     11    1.9255  1.100     -0.864475      1.193176      0.383761
   12   O     12    1.7500  1.100     -1.177896      2.307700      0.719985
   13   H     13    1.4430  1.100     -3.656653      0.049273     -0.757501
   14   H     14    1.4430  1.100     -3.579503     -0.456719      0.961772
   15   H     15    1.4430  1.100     -3.427623      1.281566      0.530513
   16   H     16    1.4430  1.100      1.352491     -2.540507     -0.793856
   17   H     17    1.4430  1.100      3.625709     -1.493333     -0.595121
   18   H     18    1.4430  1.100      3.868785      0.872327      0.076052
   19   H     19    1.4430  1.100      1.847010      2.276189      0.572622
 ------------------------------------------------------------------------------
 GePol: Number of generator spheres                  =      19
 GePol: Total number of spheres                      =      19
 GePol: Number of exposed spheres                    =      19 (100.00%)
 GePol: Number of points                             =    1661
 GePol: Average weight of points                     =       0.13
 GePol: Minimum weight of points                     =   0.85D-09
 GePol: Maximum weight of points                     =    0.20577
 GePol: Number of points with low weight             =      99
 GePol: Fraction of low-weight points (<1% of avg)   =       5.96%
 GePol: Cavity surface area                          =    216.079 Ang**2
 GePol: Cavity volume                                =    219.188 Ang**3
 Leave Link  301 at Wed Feb 28 21:00:52 2024, MaxMem=  2147483648 cpu:               2.7 elap:               0.1
 (Enter /software/gaussian-16RevA.03-el7-x86_64/g16/l302.exe)
 NPDir=0 NMtPBC=     1 NCelOv=     1 NCel=       1 NClECP=     1 NCelD=      1
         NCelK=      1 NCelE2=     1 NClLst=     1 CellRange=     0.0.
 One-electron integrals computed using PRISM.
   1 Symmetry operations used in ECPInt.
 ECPInt:  NShTT=    3741 NPrTT=   15055 LenC2=    3665 LenP2D=   11025.
 LDataN:  DoStor=T MaxTD1= 4 Len=   56
 NBasis=   182 RedAO= T EigKep=  2.79D-04  NBF=   182
 NBsUse=   182 1.00D-06 EigRej= -1.00D+00 NBFU=   182
 Precomputing XC quadrature grid using
 IXCGrd= 4 IRadAn=           5 IRanWt=          -1 IRanGd=           0 AccXCQ= 0.00D+00.
 Generated NRdTot=       0 NPtTot=           0 NUsed=           0 NTot=          32
 NSgBfM=   193   193   193   193   193 MxSgAt=    19 MxSgA2=    19.
 Leave Link  302 at Wed Feb 28 21:00:52 2024, MaxMem=  2147483648 cpu:               5.2 elap:               0.2
 (Enter /software/gaussian-16RevA.03-el7-x86_64/g16/l303.exe)
 DipDrv:  MaxL=1.
 Leave Link  303 at Wed Feb 28 21:00:53 2024, MaxMem=  2147483648 cpu:               2.9 elap:               0.1
 (Enter /software/gaussian-16RevA.03-el7-x86_64/g16/l401.exe)
 Initial guess from the checkpoint file:  "NMPHTH-cavity-in-THF-wB97XD.chk"
 B after Tr=     0.000057    0.000303    0.000186
         Rot=    0.999999    0.001401   -0.000132   -0.000060 Ang=   0.16 deg.
 Guess basis will be translated and rotated to current coordinates.
 JPrj=2 DoOrth=T DoCkMO=T.
 Generating alternative initial guess.
 ExpMin= 1.22D-01 ExpMax= 2.27D+03 ExpMxC= 3.41D+02 IAcc=2 IRadAn=         4 AccDes= 0.00D+00
 Harris functional with IExCor= 4639 and IRadAn=       4 diagonalized for initial guess.
 HarFok:  IExCor= 4639 AccDes= 0.00D+00 IRadAn=         4 IDoV= 1 UseB2=F ITyADJ=14
 ICtDFT=  3500011 ScaDFX=  1.000000  1.000000  1.000000  1.000000
 FoFCou: FMM=F IPFlag=           0 FMFlag=      100000 FMFlg1=           0
         NFxFlg=           0 DoJE=T BraDBF=F KetDBF=T FulRan=T
         wScrn=  0.000000 ICntrl=       500 IOpCl=  0 I1Cent=   200000004 NGrid=           0
         NMat0=    1 NMatS0=      1 NMatT0=    0 NMatD0=    1 NMtDS0=    0 NMtDT0=    0
 Symmetry not used in FoFCou.
 Harris En= -528.820480699068    
 Leave Link  401 at Wed Feb 28 21:00:53 2024, MaxMem=  2147483648 cpu:              10.1 elap:               0.4
 (Enter /software/gaussian-16RevA.03-el7-x86_64/g16/l502.exe)
 Two-electron integral symmetry not used.
 Closed shell SCF:
 Using DIIS extrapolation, IDIIS=  1040.
 NGot=  2147483648 LenX=  2147401213 LenY=  2147363136
 Requested convergence on RMS density matrix=1.00D-08 within  32 cycles.
 Requested convergence on MAX density matrix=1.00D-06.
 Requested convergence on             energy=1.00D-06.
 No special actions if energy rises.
 Fock matrices will be formed incrementally for  20 cycles.

 Cycle   1  Pass 1  IDiag  1:
 FoFJK:  IHMeth= 1 ICntrl=       0 DoSepK=T KAlg= 0 I1Cent=           0 FoldK=F
 IRaf=         1 NMat=       1 IRICut=       1 DoRegI=T DoRafI=F ISym2E= 0 IDoP0=0 IntGTp=1.
 FoFCou: FMM=F IPFlag=           0 FMFlag=      100000 FMFlg1=           0
         NFxFlg=           0 DoJE=T BraDBF=F KetDBF=F FulRan=T
         wScrn=  0.000000 ICntrl=       500 IOpCl=  0 I1Cent=           0 NGrid=           0
         NMat0=    1 NMatS0=      1 NMatT0=    0 NMatD0=    1 NMtDS0=    0 NMtDT0=    0
 Symmetry not used in FoFCou.
 Inv3:  Mode=1 IEnd=     8276763.
 Iteration    1 A*A^-1 deviation from unit magnitude is 3.33D-15 for    237.
 Iteration    1 A*A^-1 deviation from orthogonality  is 1.26D-15 for   1060    931.
 Iteration    1 A^-1*A deviation from unit magnitude is 3.77D-15 for    237.
 Iteration    1 A^-1*A deviation from orthogonality  is 1.58D-15 for   1165    695.
 E= -551.820529420566    
 DIIS: error= 1.76D-03 at cycle   1 NSaved=   1.
 NSaved= 1 IEnMin= 1 EnMin= -551.820529420566     IErMin= 1 ErrMin= 1.76D-03
 ErrMax= 1.76D-03  0.00D+00 EMaxC= 1.00D-01 BMatC= 1.60D-04 BMatP= 1.60D-04
 IDIUse=3 WtCom= 9.82D-01 WtEn= 1.76D-02
 Coeff-Com:  0.100D+01
 Coeff-En:   0.100D+01
 Coeff:      0.100D+01
 Gap=     0.823 Goal=   None    Shift=    0.000
 GapD=    0.823 DampG=2.000 DampE=1.000 DampFc=2.0000 IDamp=-1.
 RMSDP=1.06D-04 MaxDP=5.35D-03              OVMax= 5.80D-03

 Cycle   2  Pass 1  IDiag  1:
 RMSU=  1.06D-04    CP:  1.00D+00
 E= -551.820878404285     Delta-E=       -0.000348983719 Rises=F Damp=F
 DIIS: error= 3.74D-04 at cycle   2 NSaved=   2.
 NSaved= 2 IEnMin= 2 EnMin= -551.820878404285     IErMin= 2 ErrMin= 3.74D-04
 ErrMax= 3.74D-04  0.00D+00 EMaxC= 1.00D-01 BMatC= 8.55D-06 BMatP= 1.60D-04
 IDIUse=3 WtCom= 9.96D-01 WtEn= 3.74D-03
 Coeff-Com: -0.275D+00 0.127D+01
 Coeff-En:   0.000D+00 0.100D+01
 Coeff:     -0.274D+00 0.127D+01
 Gap=     0.328 Goal=   None    Shift=    0.000
 RMSDP=3.82D-05 MaxDP=1.61D-03 DE=-3.49D-04 OVMax= 2.47D-03

 Cycle   3  Pass 1  IDiag  1:
 RMSU=  2.16D-05    CP:  1.00D+00  1.30D+00
 E= -551.820902504971     Delta-E=       -0.000024100686 Rises=F Damp=F
 DIIS: error= 3.22D-05 at cycle   3 NSaved=   3.
 NSaved= 3 IEnMin= 3 EnMin= -551.820902504971     IErMin= 3 ErrMin= 3.22D-05
 ErrMax= 3.22D-05  0.00D+00 EMaxC= 1.00D-01 BMatC= 2.51D-07 BMatP= 8.55D-06
 IDIUse=1 WtCom= 1.00D+00 WtEn= 0.00D+00
 Coeff-Com: -0.429D-01 0.167D+00 0.876D+00
 Coeff:     -0.429D-01 0.167D+00 0.876D+00
 Gap=     0.328 Goal=   None    Shift=    0.000
 RMSDP=6.76D-06 MaxDP=1.82D-04 DE=-2.41D-05 OVMax= 2.14D-04

 Cycle   4  Pass 1  IDiag  1:
 RMSU=  5.12D-06    CP:  1.00D+00  1.31D+00  1.19D+00
 E= -551.820902676861     Delta-E=       -0.000000171890 Rises=F Damp=F
 DIIS: error= 3.91D-05 at cycle   4 NSaved=   4.
 NSaved= 4 IEnMin= 4 EnMin= -551.820902676861     IErMin= 3 ErrMin= 3.22D-05
 ErrMax= 3.91D-05  0.00D+00 EMaxC= 1.00D-01 BMatC= 2.73D-07 BMatP= 2.51D-07
 IDIUse=1 WtCom= 1.00D+00 WtEn= 0.00D+00
 Coeff-Com:  0.365D-01-0.191D+00 0.575D+00 0.580D+00
 Coeff:      0.365D-01-0.191D+00 0.575D+00 0.580D+00
 Gap=     0.328 Goal=   None    Shift=    0.000
 RMSDP=3.41D-06 MaxDP=8.47D-05 DE=-1.72D-07 OVMax= 1.18D-04

 Cycle   5  Pass 1  IDiag  1:
 RMSU=  1.29D-06    CP:  1.00D+00  1.32D+00  1.30D+00  6.43D-01
 E= -551.820902904504     Delta-E=       -0.000000227643 Rises=F Damp=F
 DIIS: error= 2.66D-06 at cycle   5 NSaved=   5.
 NSaved= 5 IEnMin= 5 EnMin= -551.820902904504     IErMin= 5 ErrMin= 2.66D-06
 ErrMax= 2.66D-06  0.00D+00 EMaxC= 1.00D-01 BMatC= 1.61D-09 BMatP= 2.51D-07
 IDIUse=1 WtCom= 1.00D+00 WtEn= 0.00D+00
 Coeff-Com:  0.101D-01-0.515D-01 0.112D+00 0.139D+00 0.791D+00
 Coeff:      0.101D-01-0.515D-01 0.112D+00 0.139D+00 0.791D+00
 Gap=     0.328 Goal=   None    Shift=    0.000
 RMSDP=4.57D-07 MaxDP=1.01D-05 DE=-2.28D-07 OVMax= 1.32D-05

 Cycle   6  Pass 1  IDiag  1:
 RMSU=  3.33D-07    CP:  1.00D+00  1.32D+00  1.31D+00  6.69D-01  1.07D+00
 E= -551.820902906237     Delta-E=       -0.000000001734 Rises=F Damp=F
 DIIS: error= 9.59D-07 at cycle   6 NSaved=   6.
 NSaved= 6 IEnMin= 6 EnMin= -551.820902906237     IErMin= 6 ErrMin= 9.59D-07
 ErrMax= 9.59D-07  0.00D+00 EMaxC= 1.00D-01 BMatC= 3.26D-10 BMatP= 1.61D-09
 IDIUse=1 WtCom= 1.00D+00 WtEn= 0.00D+00
 Coeff-Com: -0.173D-03 0.149D-02-0.216D-01-0.111D-01 0.301D+00 0.730D+00
 Coeff:     -0.173D-03 0.149D-02-0.216D-01-0.111D-01 0.301D+00 0.730D+00
 Gap=     0.328 Goal=   None    Shift=    0.000
 RMSDP=1.72D-07 MaxDP=3.64D-06 DE=-1.73D-09 OVMax= 5.25D-06

 Cycle   7  Pass 1  IDiag  1:
 RMSU=  9.82D-08    CP:  1.00D+00  1.32D+00  1.32D+00  6.76D-01  1.15D+00
                    CP:  8.84D-01
 E= -551.820902906590     Delta-E=       -0.000000000352 Rises=F Damp=F
 DIIS: error= 4.23D-07 at cycle   7 NSaved=   7.
 NSaved= 7 IEnMin= 7 EnMin= -551.820902906590     IErMin= 7 ErrMin= 4.23D-07
 ErrMax= 4.23D-07  0.00D+00 EMaxC= 1.00D-01 BMatC= 3.99D-11 BMatP= 3.26D-10
 IDIUse=1 WtCom= 1.00D+00 WtEn= 0.00D+00
 Coeff-Com: -0.761D-03 0.414D-02-0.169D-01-0.143D-01 0.736D-01 0.318D+00
 Coeff-Com:  0.636D+00
 Coeff:     -0.761D-03 0.414D-02-0.169D-01-0.143D-01 0.736D-01 0.318D+00
 Coeff:      0.636D+00
 Gap=     0.328 Goal=   None    Shift=    0.000
 RMSDP=5.30D-08 MaxDP=1.27D-06 DE=-3.52D-10 OVMax= 2.46D-06

 Cycle   8  Pass 1  IDiag  1:
 RMSU=  4.01D-08    CP:  1.00D+00  1.32D+00  1.32D+00  6.77D-01  1.17D+00
                    CP:  9.48D-01  9.43D-01
 E= -551.820902906630     Delta-E=       -0.000000000040 Rises=F Damp=F
 DIIS: error= 1.37D-07 at cycle   8 NSaved=   8.
 NSaved= 8 IEnMin= 8 EnMin= -551.820902906630     IErMin= 8 ErrMin= 1.37D-07
 ErrMax= 1.37D-07  0.00D+00 EMaxC= 1.00D-01 BMatC= 4.98D-12 BMatP= 3.99D-11
 IDIUse=1 WtCom= 1.00D+00 WtEn= 0.00D+00
 Coeff-Com: -0.226D-03 0.113D-02-0.175D-02-0.286D-02-0.305D-01-0.241D-01
 Coeff-Com:  0.222D+00 0.836D+00
 Coeff:     -0.226D-03 0.113D-02-0.175D-02-0.286D-02-0.305D-01-0.241D-01
 Coeff:      0.222D+00 0.836D+00
 Gap=     0.328 Goal=   None    Shift=    0.000
 RMSDP=2.92D-08 MaxDP=5.91D-07 DE=-4.04D-11 OVMax= 2.11D-06

 Cycle   9  Pass 1  IDiag  1:
 RMSU=  1.44D-08    CP:  1.00D+00  1.32D+00  1.32D+00  6.78D-01  1.18D+00
                    CP:  9.81D-01  1.13D+00  1.10D+00
 E= -551.820902906648     Delta-E=       -0.000000000017 Rises=F Damp=F
 DIIS: error= 7.35D-08 at cycle   9 NSaved=   9.
 NSaved= 9 IEnMin= 9 EnMin= -551.820902906648     IErMin= 9 ErrMin= 7.35D-08
 ErrMax= 7.35D-08  0.00D+00 EMaxC= 1.00D-01 BMatC= 6.26D-13 BMatP= 4.98D-12
 IDIUse=1 WtCom= 1.00D+00 WtEn= 0.00D+00
 Coeff-Com:  0.645D-04-0.376D-03 0.227D-02 0.154D-02-0.194D-01-0.575D-01
 Coeff-Com: -0.513D-01 0.195D+00 0.930D+00
 Coeff:      0.645D-04-0.376D-03 0.227D-02 0.154D-02-0.194D-01-0.575D-01
 Coeff:     -0.513D-01 0.195D+00 0.930D+00
 Gap=     0.328 Goal=   None    Shift=    0.000
 RMSDP=1.42D-08 MaxDP=3.74D-07 DE=-1.74D-11 OVMax= 1.33D-06

 Cycle  10  Pass 1  IDiag  1:
 RMSU=  6.54D-09    CP:  1.00D+00  1.32D+00  1.32D+00  6.78D-01  1.19D+00
                    CP:  9.92D-01  1.20D+00  1.30D+00  1.22D+00
 E= -551.820902906644     Delta-E=        0.000000000003 Rises=F Damp=F
 DIIS: error= 3.17D-08 at cycle  10 NSaved=  10.
 NSaved=10 IEnMin= 9 EnMin= -551.820902906648     IErMin=10 ErrMin= 3.17D-08
 ErrMax= 3.17D-08  0.00D+00 EMaxC= 1.00D-01 BMatC= 1.28D-13 BMatP= 6.26D-13
 IDIUse=1 WtCom= 1.00D+00 WtEn= 0.00D+00
 Coeff-Com:  0.562D-04-0.300D-03 0.106D-02 0.955D-03-0.215D-02-0.163D-01
 Coeff-Com: -0.520D-01-0.601D-01 0.314D+00 0.815D+00
 Coeff:      0.562D-04-0.300D-03 0.106D-02 0.955D-03-0.215D-02-0.163D-01
 Coeff:     -0.520D-01-0.601D-01 0.314D+00 0.815D+00
 Gap=     0.328 Goal=   None    Shift=    0.000
 RMSDP=5.50D-09 MaxDP=1.60D-07 DE= 3.41D-12 OVMax= 5.80D-07

 Error on total polarization charges =  0.00673
 SCF Done:  E(RwB97XD) =  -551.820902907     A.U. after   10 cycles
            NFock= 10  Conv=0.55D-08     -V/T= 2.0095
 KE= 5.466540066988D+02 PE=-2.597179099452D+03 EE= 8.422851292604D+02
 Leave Link  502 at Wed Feb 28 21:01:03 2024, MaxMem=  2147483648 cpu:             261.8 elap:               9.6
 (Enter /software/gaussian-16RevA.03-el7-x86_64/g16/l508.exe)
 QCSCF skips out because SCF is already converged.
 Leave Link  508 at Wed Feb 28 21:01:03 2024, MaxMem=  2147483648 cpu:               0.8 elap:               0.1
 (Enter /software/gaussian-16RevA.03-el7-x86_64/g16/l801.exe)
 DoSCS=F DFT=T ScalE2(SS,OS)=  1.000000  1.000000
 Range of M.O.s used for correlation:     1   182
 NBasis=   182 NAE=    42 NBE=    42 NFC=     0 NFV=     0
 NROrb=    182 NOA=    42 NOB=    42 NVA=   140 NVB=   140

 **** Warning!!: The largest alpha MO coefficient is  0.16815565D+02

 Leave Link  801 at Wed Feb 28 21:01:03 2024, MaxMem=  2147483648 cpu:               0.9 elap:               0.1
 (Enter /software/gaussian-16RevA.03-el7-x86_64/g16/l1101.exe)
 Leave Link 1101 at Wed Feb 28 21:01:03 2024, MaxMem=  2147483648 cpu:               0.9 elap:               0.1
 (Enter /software/gaussian-16RevA.03-el7-x86_64/g16/l1102.exe)
 Symmetrizing basis deriv contribution to polar:
 IMax=3 JMax=2 DiffMx= 0.00D+00
 Leave Link 1102 at Wed Feb 28 21:01:03 2024, MaxMem=  2147483648 cpu:               0.8 elap:               0.1
 (Enter /software/gaussian-16RevA.03-el7-x86_64/g16/l1110.exe)
 Leave Link 1110 at Wed Feb 28 21:01:03 2024, MaxMem=  2147483648 cpu:               0.9 elap:               0.1
 (Enter /software/gaussian-16RevA.03-el7-x86_64/g16/l1002.exe)
 Minotr:  Closed shell wavefunction.
 Leave Link 1002 at Wed Feb 28 21:01:03 2024, MaxMem=  2147483648 cpu:               2.5 elap:               0.1
 (Enter /software/gaussian-16RevA.03-el7-x86_64/g16/l701.exe)
 ... and contract with generalized density number  0.
 Compute integral first derivatives.
 R6Disp: Adding Grimme-D2 dispersion energy 1st derivatives to the gradient.
   1 Symmetry operations used in ECPInt.
 ECPInt:  NShTT=    3741 NPrTT=   15055 LenC2=    3665 LenP2D=   11025.
 LDataN:  DoStor=T MaxTD1= 5 Len=  102
 D1PCM: PCM CHGder 1st derivatives, ID1Alg=3 FixD1E=F DoIter=F DoCFld=F I1PDM=0.
 GePol: Maximum number of non-zero 1st derivatives   =     213
 Leave Link  701 at Wed Feb 28 21:01:04 2024, MaxMem=  2147483648 cpu:              18.3 elap:               0.7
 (Enter /software/gaussian-16RevA.03-el7-x86_64/g16/l702.exe)
 L702 exits ... SP integral derivatives will be done elsewhere.
 Leave Link  702 at Wed Feb 28 21:01:04 2024, MaxMem=  2147483648 cpu:               2.1 elap:               0.1
 (Enter /software/gaussian-16RevA.03-el7-x86_64/g16/l703.exe)
 Integral derivatives from FoFJK, PRISM(SPDF).
 Compute integral first derivatives, UseDBF=F ICtDFT=           0.
 Calling FoFJK, ICntrl=      2127 FMM=F ISym2X=0 I1Cent= 0 IOpClX= 0 NMat=1 NMatS=1 NMatT=0.
 FoFJK:  IHMeth= 1 ICntrl=    2127 DoSepK=T KAlg= 0 I1Cent=           0 FoldK=F
 IRaf=         1 NMat=       1 IRICut=       1 DoRegI=T DoRafI=F ISym2E= 0 IDoP0=0 IntGTp=1.
 FoFCou: FMM=F IPFlag=           0 FMFlag=      100000 FMFlg1=         800
         NFxFlg=           0 DoJE=F BraDBF=F KetDBF=F FulRan=T
         wScrn=  0.000000 ICntrl=      2527 IOpCl=  0 I1Cent=           0 NGrid=           0
         NMat0=    1 NMatS0=      1 NMatT0=    0 NMatD0=    1 NMtDS0=    0 NMtDT0=    0
 Symmetry not used in FoFCou.
 Leave Link  703 at Wed Feb 28 21:01:06 2024, MaxMem=  2147483648 cpu:              51.5 elap:               1.9
 (Enter /software/gaussian-16RevA.03-el7-x86_64/g16/l716.exe)
 Dipole        = 1.11471666D+00-8.09415838D-02-7.41293576D-02
 Polarizability= 0.00000000D+00 0.00000000D+00 0.00000000D+00
                 0.00000000D+00 0.00000000D+00 0.00000000D+00
 -------------------------------------------------------------------
 Center     Atomic                   Forces (Hartrees/Bohr)
 Number     Number              X              Y              Z
 -------------------------------------------------------------------
      1        6           0.000001790   -0.000111945   -0.000028748
      2        7           0.000033413    0.000041457   -0.000008004
      3        6          -0.000018713    0.000066550    0.000019468
      4        8          -0.000030005   -0.000049556   -0.000013506
      5        6           0.000012142    0.000008002    0.000004710
      6        6          -0.000004203    0.000001972    0.000000367
      7        6           0.000000963   -0.000020126   -0.000006998
      8        6           0.000004698    0.000023093    0.000005952
      9        6          -0.000005926    0.000004279    0.000001464
     10        6           0.000004489   -0.000003257   -0.000001146
     11        6          -0.000011622   -0.000023446    0.000002848
     12        8           0.000022408    0.000057565    0.000011162
     13        1          -0.000020981    0.000002046    0.000008419
     14        1          -0.000037371    0.000008660    0.000004276
     15        1           0.000057187   -0.000011852   -0.000000374
     16        1           0.000001593    0.000008729    0.000001531
     17        1          -0.000003251    0.000003460    0.000000164
     18        1          -0.000004889    0.000001195    0.000000217
     19        1          -0.000001722   -0.000006827   -0.000001801
 -------------------------------------------------------------------
 Cartesian Forces:  Max     0.000111945 RMS     0.000025332
 Leave Link  716 at Wed Feb 28 21:01:06 2024, MaxMem=  2147483648 cpu:               1.2 elap:               0.1
 (Enter /software/gaussian-16RevA.03-el7-x86_64/g16/l103.exe)

 GradGradGradGradGradGradGradGradGradGradGradGradGradGradGradGradGradGrad
 Berny optimization.
 Using GEDIIS/GDIIS optimizer.
 FormGI is forming the generalized inverse of G from B-inverse, IUseBI=4.
 Internal  Forces:  Max     0.000102345 RMS     0.000020273
 Step   6 in ReCalcFC=50 IGetFC= 0 update Hessian.
 Search for a local minimum.
 Step number   6 out of a maximum of  114
 All quantities printed in internal units (Hartrees-Bohrs-Radians)
 RMS Force = .20273D-04 SwitMx=.10000D-02 MixMth= 2
 Mixed Optimization -- En-DIIS/RFO-DIIS
 Swapping is turned off.
 Update second derivatives using D2CorX and points    1    2    3    5    6
 DE= -3.97D-06 DEPred=-3.74D-06 R= 1.06D+00
 TightC=F SS=  1.41D+00  RLast= 1.06D-01 DXNew= 2.2283D-01 3.1855D-01
 Trust test= 1.06D+00 RLast= 1.06D-01 DXMaxT set to 2.23D-01
 ITU=  1 -1 -1  1  1  0
     Eigenvalues ---    0.00044   0.00617   0.01011   0.01488   0.01616
     Eigenvalues ---    0.01799   0.01863   0.02150   0.02428   0.02713
     Eigenvalues ---    0.03028   0.03197   0.04320   0.04939   0.06083
     Eigenvalues ---    0.06381   0.10714   0.10771   0.12098   0.12459
     Eigenvalues ---    0.13438   0.14817   0.16799   0.18675   0.19172
     Eigenvalues ---    0.19377   0.19790   0.20864   0.23736   0.24442
     Eigenvalues ---    0.25952   0.28394   0.30337   0.35545   0.35880
     Eigenvalues ---    0.36152   0.36933   0.37177   0.37494   0.37806
     Eigenvalues ---    0.38151   0.38229   0.40178   0.41441   0.43687
     Eigenvalues ---    0.43823   0.48995   0.51106   0.53904   0.86036
     Eigenvalues ---    0.96446
 En-DIIS/RFO-DIIS/Sim-DIIS IScMMF=       -3 using points:     6    5
 RFO step:  Lambda=-1.36991675D-07.
 NNeg= 0 NGDIIS= 2 SimSw=  2.50D-03 Rises=F DC= -3.97D-06 SmlDif=  1.00D-05
 NRisDI= 0 DoIntr=F SqrtH=F CThrHd= 10.0 CDAdj=  3.0
 RMS Error=  0.1793324189D-03 NUsed= 2 OKEnD=F EnDIS=F
 InvSVX:  RCond= 1.27D-02 Info=           0 Equed=N FErr=  9.02D-16 BErr=  2.29D-17
 DidBck=F Rises=F RFO-DIIS coefs:    0.98569    0.01431
 Iteration  1 RMS(Cart)=  0.00023980 RMS(Int)=  0.00000007
 Iteration  2 RMS(Cart)=  0.00000008 RMS(Int)=  0.00000001
 ITry= 1 IFail=0 DXMaxC= 1.36D-03 DCOld= 1.00D+10 DXMaxT= 2.23D-01 DXLimC= 3.00D+00 Rises=F
 Variable       Old X    -DE/DX   Delta X   Delta X   Delta X     New X
                                 (Linear)    (Quad)   (Total)
    R1        2.72962  -0.00001   0.00000  -0.00003  -0.00003   2.72959
    R2        2.08191   0.00000  -0.00000  -0.00001  -0.00001   2.08190
    R3        2.08178   0.00001   0.00000   0.00002   0.00002   2.08180
    R4        2.07715  -0.00002   0.00000  -0.00003  -0.00002   2.07713
    R5        2.63418  -0.00005   0.00001  -0.00009  -0.00008   2.63410
    R6        2.63804   0.00004   0.00000   0.00005   0.00005   2.63809
    R7        2.27865   0.00006   0.00000   0.00004   0.00004   2.27869
    R8        2.82476   0.00001   0.00001   0.00001   0.00002   2.82478
    R9        2.61840  -0.00001   0.00000  -0.00001  -0.00001   2.61839
   R10        2.63195  -0.00001   0.00000  -0.00001  -0.00001   2.63194
   R11        2.64732  -0.00000   0.00000  -0.00001  -0.00001   2.64732
   R12        2.06491  -0.00001   0.00000  -0.00001  -0.00001   2.06489
   R13        2.64385   0.00002  -0.00000   0.00002   0.00002   2.64387
   R14        2.06607  -0.00000   0.00000  -0.00001  -0.00001   2.06606
   R15        2.64733  -0.00000  -0.00000  -0.00000  -0.00000   2.64732
   R16        2.06603  -0.00000   0.00000  -0.00001  -0.00001   2.06603
   R17        2.61849  -0.00001   0.00000  -0.00000  -0.00000   2.61849
   R18        2.06491  -0.00001   0.00000  -0.00001  -0.00001   2.06490
   R19        2.82514  -0.00000   0.00001   0.00002   0.00002   2.82516
   R20        2.27823   0.00005   0.00000   0.00001   0.00001   2.27825
    A1        1.92884   0.00004  -0.00003   0.00020   0.00017   1.92901
    A2        1.92828   0.00007   0.00001   0.00029   0.00031   1.92859
    A3        1.88174  -0.00010   0.00003  -0.00051  -0.00048   1.88127
    A4        1.90253  -0.00003   0.00001  -0.00002  -0.00001   1.90252
    A5        1.91095   0.00002  -0.00000   0.00006   0.00005   1.91100
    A6        1.91135   0.00000  -0.00001  -0.00003  -0.00004   1.91131
    A7        2.15301  -0.00006   0.00001  -0.00022  -0.00021   2.15280
    A8        2.16873   0.00005  -0.00002   0.00021   0.00019   2.16892
    A9        1.96144   0.00002   0.00000   0.00002   0.00002   1.96146
   A10        2.18143  -0.00000   0.00000  -0.00007  -0.00006   2.18137
   A11        1.84747  -0.00000  -0.00001   0.00003   0.00002   1.84749
   A12        2.25428   0.00001   0.00000   0.00004   0.00004   2.25432
   A13        2.27632  -0.00001  -0.00000   0.00003   0.00002   2.27635
   A14        1.88430   0.00000   0.00000  -0.00003  -0.00003   1.88427
   A15        2.12256   0.00000  -0.00000   0.00000   0.00000   2.12257
   A16        2.04715   0.00000   0.00000   0.00000   0.00001   2.04715
   A17        2.11598  -0.00000  -0.00000  -0.00001  -0.00001   2.11597
   A18        2.12006  -0.00000  -0.00000   0.00000   0.00000   2.12006
   A19        2.11345  -0.00000  -0.00000  -0.00001  -0.00001   2.11344
   A20        2.08660   0.00000  -0.00000   0.00000   0.00000   2.08660
   A21        2.08313   0.00000   0.00000   0.00001   0.00001   2.08314
   A22        2.11332  -0.00000  -0.00000  -0.00000  -0.00000   2.11331
   A23        2.08317   0.00000   0.00000   0.00000   0.00000   2.08317
   A24        2.08670   0.00000  -0.00000   0.00000   0.00000   2.08670
   A25        2.04704   0.00000   0.00000   0.00000   0.00000   2.04704
   A26        2.12026  -0.00000  -0.00000  -0.00000  -0.00000   2.12026
   A27        2.11588  -0.00000  -0.00000   0.00000   0.00000   2.11588
   A28        2.12286   0.00000  -0.00000   0.00000   0.00000   2.12286
   A29        1.88666   0.00000  -0.00000   0.00003   0.00003   1.88669
   A30        2.27367  -0.00001   0.00000  -0.00003  -0.00003   2.27364
   A31        1.84491  -0.00002  -0.00000  -0.00004  -0.00004   1.84486
   A32        2.18968   0.00005  -0.00001   0.00014   0.00013   2.18981
   A33        2.24860  -0.00003   0.00001  -0.00010  -0.00009   2.24851
    D1       -1.05844  -0.00002   0.00061  -0.00026   0.00036  -1.05808
    D2        2.08247  -0.00002   0.00063  -0.00002   0.00061   2.08308
    D3        1.04868   0.00002   0.00061   0.00004   0.00065   1.04933
    D4       -2.09361   0.00002   0.00062   0.00028   0.00090  -2.09270
    D5        3.13679  -0.00000   0.00062  -0.00013   0.00049   3.13728
    D6       -0.00549   0.00000   0.00063   0.00011   0.00074  -0.00475
    D7       -0.00042   0.00000   0.00002   0.00014   0.00016  -0.00026
    D8        3.14108   0.00000   0.00001   0.00015   0.00016   3.14124
    D9       -3.14140   0.00000   0.00001  -0.00008  -0.00007  -3.14147
   D10        0.00010   0.00000   0.00000  -0.00006  -0.00006   0.00004
   D11       -3.14088  -0.00000  -0.00001  -0.00017  -0.00018  -3.14106
   D12        0.00089  -0.00000  -0.00001  -0.00022  -0.00023   0.00066
   D13        0.00009  -0.00000  -0.00000   0.00005   0.00005   0.00014
   D14       -3.14132  -0.00000  -0.00000  -0.00000  -0.00000  -3.14133
   D15        3.14132   0.00000   0.00000   0.00007   0.00007   3.14139
   D16       -0.00027  -0.00000  -0.00000   0.00006   0.00005  -0.00022
   D17       -0.00037   0.00000  -0.00000   0.00008   0.00008  -0.00030
   D18        3.14122   0.00000  -0.00001   0.00007   0.00006   3.14128
   D19        3.14155  -0.00000  -0.00000   0.00000  -0.00000   3.14155
   D20       -0.00016  -0.00000  -0.00000   0.00001   0.00001  -0.00015
   D21       -0.00005   0.00000   0.00000   0.00002   0.00002  -0.00003
   D22        3.14143   0.00000   0.00000   0.00002   0.00002   3.14146
   D23       -3.14153   0.00000   0.00000  -0.00001  -0.00001  -3.14154
   D24        0.00033   0.00000   0.00000  -0.00003  -0.00003   0.00030
   D25        0.00007  -0.00000  -0.00000  -0.00002  -0.00002   0.00004
   D26       -3.14126  -0.00000  -0.00000  -0.00004  -0.00004  -3.14131
   D27       -0.00001   0.00000  -0.00000   0.00000   0.00000  -0.00001
   D28       -3.14158   0.00000   0.00000  -0.00000  -0.00000  -3.14158
   D29       -3.14149  -0.00000  -0.00000  -0.00000  -0.00000  -3.14149
   D30        0.00013  -0.00000  -0.00000  -0.00001  -0.00001   0.00012
   D31        0.00005  -0.00000  -0.00000  -0.00002  -0.00002   0.00003
   D32        3.14156  -0.00000   0.00000  -0.00001  -0.00001   3.14155
   D33       -3.14157  -0.00000  -0.00000  -0.00001  -0.00001  -3.14158
   D34       -0.00006  -0.00000  -0.00000  -0.00001  -0.00001  -0.00007
   D35       -0.00003   0.00000   0.00000   0.00001   0.00001  -0.00002
   D36        3.14154   0.00000   0.00000   0.00001   0.00001   3.14155
   D37       -3.14154   0.00000   0.00000   0.00001   0.00001  -3.14153
   D38        0.00003   0.00000   0.00000   0.00000   0.00001   0.00004
   D39       -0.00003   0.00000  -0.00000   0.00001   0.00001  -0.00002
   D40        3.14124   0.00000   0.00000   0.00003   0.00003   3.14127
   D41        3.14158   0.00000  -0.00000   0.00001   0.00001  -3.14159
   D42       -0.00033   0.00000   0.00000   0.00003   0.00003  -0.00030
   D43       -0.00026   0.00000  -0.00000  -0.00001  -0.00001  -0.00027
   D44        3.14114   0.00000  -0.00000   0.00004   0.00004   3.14118
   D45       -3.14156  -0.00000  -0.00000  -0.00003  -0.00003   3.14159
   D46       -0.00016   0.00000  -0.00000   0.00002   0.00002  -0.00014
         Item               Value     Threshold  Converged?
 Maximum Force            0.000102     0.000450     YES
 RMS     Force            0.000020     0.000300     YES
 Maximum Displacement     0.001359     0.001800     YES
 RMS     Displacement     0.000240     0.001200     YES
 Predicted change in Energy=-6.849622D-08
 Optimization completed.
    -- Stationary point found.
                           ----------------------------
                           !   Optimized Parameters   !
                           ! (Angstroms and Degrees)  !
 --------------------------                            --------------------------
 ! Name  Definition              Value          Derivative Info.                !
 --------------------------------------------------------------------------------
 ! R1    R(1,2)                  1.4445         -DE/DX =    0.0                 !
 ! R2    R(1,13)                 1.1017         -DE/DX =    0.0                 !
 ! R3    R(1,14)                 1.1016         -DE/DX =    0.0                 !
 ! R4    R(1,15)                 1.0992         -DE/DX =    0.0                 !
 ! R5    R(2,3)                  1.3939         -DE/DX =    0.0                 !
 ! R6    R(2,11)                 1.396          -DE/DX =    0.0                 !
 ! R7    R(3,4)                  1.2058         -DE/DX =    0.0001              !
 ! R8    R(3,5)                  1.4948         -DE/DX =    0.0                 !
 ! R9    R(5,6)                  1.3856         -DE/DX =    0.0                 !
 ! R10   R(5,10)                 1.3928         -DE/DX =    0.0                 !
 ! R11   R(6,7)                  1.4009         -DE/DX =    0.0                 !
 ! R12   R(6,16)                 1.0927         -DE/DX =    0.0                 !
 ! R13   R(7,8)                  1.3991         -DE/DX =    0.0                 !
 ! R14   R(7,17)                 1.0933         -DE/DX =    0.0                 !
 ! R15   R(8,9)                  1.4009         -DE/DX =    0.0                 !
 ! R16   R(8,18)                 1.0933         -DE/DX =    0.0                 !
 ! R17   R(9,10)                 1.3856         -DE/DX =    0.0                 !
 ! R18   R(9,19)                 1.0927         -DE/DX =    0.0                 !
 ! R19   R(10,11)                1.495          -DE/DX =    0.0                 !
 ! R20   R(11,12)                1.2056         -DE/DX =    0.0001              !
 ! A1    A(2,1,13)             110.5145         -DE/DX =    0.0                 !
 ! A2    A(2,1,14)             110.4823         -DE/DX =    0.0001              !
 ! A3    A(2,1,15)             107.816          -DE/DX =   -0.0001              !
 ! A4    A(13,1,14)            109.0072         -DE/DX =    0.0                 !
 ! A5    A(13,1,15)            109.4894         -DE/DX =    0.0                 !
 ! A6    A(14,1,15)            109.5122         -DE/DX =    0.0                 !
 ! A7    A(1,2,3)              123.3585         -DE/DX =   -0.0001              !
 ! A8    A(1,2,11)             124.2593         -DE/DX =    0.0                 !
 ! A9    A(3,2,11)             112.3822         -DE/DX =    0.0                 !
 ! A10   A(2,3,4)              124.9868         -DE/DX =    0.0                 !
 ! A11   A(2,3,5)              105.8524         -DE/DX =    0.0                 !
 ! A12   A(4,3,5)              129.1608         -DE/DX =    0.0                 !
 ! A13   A(3,5,6)              130.4237         -DE/DX =    0.0                 !
 ! A14   A(3,5,10)             107.9623         -DE/DX =    0.0                 !
 ! A15   A(6,5,10)             121.6139         -DE/DX =    0.0                 !
 ! A16   A(5,6,7)              117.293          -DE/DX =    0.0                 !
 ! A17   A(5,6,16)             121.2366         -DE/DX =    0.0                 !
 ! A18   A(7,6,16)             121.4705         -DE/DX =    0.0                 !
 ! A19   A(6,7,8)              121.0916         -DE/DX =    0.0                 !
 ! A20   A(6,7,17)             119.5536         -DE/DX =    0.0                 !
 ! A21   A(8,7,17)             119.3548         -DE/DX =    0.0                 !
 ! A22   A(7,8,9)              121.084          -DE/DX =    0.0                 !
 ! A23   A(7,8,18)             119.3568         -DE/DX =    0.0                 !
 ! A24   A(9,8,18)             119.5591         -DE/DX =    0.0                 !
 ! A25   A(8,9,10)             117.2866         -DE/DX =    0.0                 !
 ! A26   A(8,9,19)             121.4821         -DE/DX =    0.0                 !
 ! A27   A(10,9,19)            121.2312         -DE/DX =    0.0                 !
 ! A28   A(5,10,9)             121.6308         -DE/DX =    0.0                 !
 ! A29   A(5,10,11)            108.0976         -DE/DX =    0.0                 !
 ! A30   A(9,10,11)            130.2715         -DE/DX =    0.0                 !
 ! A31   A(2,11,10)            105.7055         -DE/DX =    0.0                 !
 ! A32   A(2,11,12)            125.4595         -DE/DX =    0.0001              !
 ! A33   A(10,11,12)           128.835          -DE/DX =    0.0                 !
 ! D1    D(13,1,2,3)           -60.6439         -DE/DX =    0.0                 !
 ! D2    D(13,1,2,11)          119.3166         -DE/DX =    0.0                 !
 ! D3    D(14,1,2,3)            60.0847         -DE/DX =    0.0                 !
 ! D4    D(14,1,2,11)         -119.9548         -DE/DX =    0.0                 !
 ! D5    D(15,1,2,3)           179.7249         -DE/DX =    0.0                 !
 ! D6    D(15,1,2,11)           -0.3146         -DE/DX =    0.0                 !
 ! D7    D(1,2,3,4)             -0.024          -DE/DX =    0.0                 !
 ! D8    D(1,2,3,5)            179.9706         -DE/DX =    0.0                 !
 ! D9    D(11,2,3,4)          -179.9888         -DE/DX =    0.0                 !
 ! D10   D(11,2,3,5)             0.0058         -DE/DX =    0.0                 !
 ! D11   D(1,2,11,10)         -179.9591         -DE/DX =    0.0                 !
 ! D12   D(1,2,11,12)            0.0512         -DE/DX =    0.0                 !
 ! D13   D(3,2,11,10)            0.0052         -DE/DX =    0.0                 !
 ! D14   D(3,2,11,12)         -179.9845         -DE/DX =    0.0                 !
 ! D15   D(2,3,5,6)            179.9844         -DE/DX =    0.0                 !
 ! D16   D(2,3,5,10)            -0.0155         -DE/DX =    0.0                 !
 ! D17   D(4,3,5,6)             -0.0213         -DE/DX =    0.0                 !
 ! D18   D(4,3,5,10)           179.9788         -DE/DX =    0.0                 !
 ! D19   D(3,5,6,7)            179.9976         -DE/DX =    0.0                 !
 ! D20   D(3,5,6,16)            -0.0089         -DE/DX =    0.0                 !
 ! D21   D(10,5,6,7)            -0.0026         -DE/DX =    0.0                 !
 ! D22   D(10,5,6,16)          179.9909         -DE/DX =    0.0                 !
 ! D23   D(3,5,10,9)          -179.9963         -DE/DX =    0.0                 !
 ! D24   D(3,5,10,11)            0.0187         -DE/DX =    0.0                 !
 ! D25   D(6,5,10,9)             0.0038         -DE/DX =    0.0                 !
 ! D26   D(6,5,10,11)         -179.9812         -DE/DX =    0.0                 !
 ! D27   D(5,6,7,8)             -0.0006         -DE/DX =    0.0                 !
 ! D28   D(5,6,7,17)          -179.9992         -DE/DX =    0.0                 !
 ! D29   D(16,6,7,8)          -179.9941         -DE/DX =    0.0                 !
 ! D30   D(16,6,7,17)            0.0073         -DE/DX =    0.0                 !
 ! D31   D(6,7,8,9)              0.0028         -DE/DX =    0.0                 !
 ! D32   D(6,7,8,18)           179.9981         -DE/DX =    0.0                 !
 ! D33   D(17,7,8,9)          -179.9986         -DE/DX =    0.0                 !
 ! D34   D(17,7,8,18)           -0.0034         -DE/DX =    0.0                 !
 ! D35   D(7,8,9,10)            -0.0017         -DE/DX =    0.0                 !
 ! D36   D(7,8,9,19)           179.9972         -DE/DX =    0.0                 !
 ! D37   D(18,8,9,10)         -179.997          -DE/DX =    0.0                 !
 ! D38   D(18,8,9,19)            0.002          -DE/DX =    0.0                 !
 ! D39   D(8,9,10,5)            -0.0015         -DE/DX =    0.0                 !
 ! D40   D(8,9,10,11)          179.9798         -DE/DX =    0.0                 !
 ! D41   D(19,9,10,5)         -180.0005         -DE/DX =    0.0                 !
 ! D42   D(19,9,10,11)          -0.0192         -DE/DX =    0.0                 !
 ! D43   D(5,10,11,2)           -0.0151         -DE/DX =    0.0                 !
 ! D44   D(5,10,11,12)         179.9741         -DE/DX =    0.0                 !
 ! D45   D(9,10,11,2)          180.0016         -DE/DX =    0.0                 !
 ! D46   D(9,10,11,12)          -0.0091         -DE/DX =    0.0                 !
 --------------------------------------------------------------------------------
 Lowest energy point so far.  Saving SCF results.
 Largest change from initial coordinates is atom   12       0.030 Angstoms.
 Step   6 in ReCalcFC=50 IGetFC= 0 compute gradient.
 GradGradGradGradGradGradGradGradGradGradGradGradGradGradGradGradGradGrad

 Leave Link  103 at Wed Feb 28 21:01:06 2024, MaxMem=  2147483648 cpu:               0.9 elap:               0.1
 (Enter /software/gaussian-16RevA.03-el7-x86_64/g16/l202.exe)
                          Input orientation:                          
 ---------------------------------------------------------------------
 Center     Atomic      Atomic             Coordinates (Angstroms)
 Number     Number       Type             X           Y           Z
 ---------------------------------------------------------------------
      1          6           0       -3.187949    0.255365    0.217991
      2          7           0       -1.750773    0.146858    0.122074
      3          6           0       -1.093523   -1.025915   -0.246325
      4          8           0       -1.637663   -2.066058   -0.521997
      5          6           0        0.365527   -0.702112   -0.219080
      6          6           0        1.467172   -1.494980   -0.497679
      7          6           0        2.731037   -0.901496   -0.383865
      8          6           0        2.868682    0.437926   -0.003885
      9          6           0        1.747055    1.229478    0.275288
     10          6           0        0.502591    0.631261    0.159253
     11          6           0       -0.864475    1.193176    0.383761
     12          8           0       -1.177896    2.307700    0.719985
     13          1           0       -3.656653    0.049273   -0.757501
     14          1           0       -3.579503   -0.456719    0.961772
     15          1           0       -3.427623    1.281566    0.530513
     16          1           0        1.352491   -2.540507   -0.793856
     17          1           0        3.625709   -1.493333   -0.595121
     18          1           0        3.868785    0.872327    0.076052
     19          1           0        1.847010    2.276189    0.572622
 ---------------------------------------------------------------------
                    Distance matrix (angstroms):
                    1          2          3          4          5
     1  C    0.000000
     2  N    1.444454   0.000000
     3  C    2.498778   1.393949   0.000000
     4  O    2.887902   2.307514   1.205811   0.000000
     5  C    3.706074   2.305615   1.494797   2.442310   0.000000
     6  C    5.024544   3.665364   2.615408   3.157011   1.385597
     7  C    6.060936   4.630512   3.829054   4.523364   2.379610
     8  C    6.063442   4.630329   4.230919   5.181266   2.758945
     9  C    5.030551   3.664743   3.664391   4.790881   2.425708
    10  C    3.710098   2.305141   2.336302   3.510031   1.392769
    11  C    2.511075   1.395989   2.318154   3.469989   2.338469
    12  O    2.916228   2.314070   3.471867   4.569865   3.510408
    13  H    1.101700   2.101322   2.826122   2.933669   4.127034
    14  H    1.101630   2.100870   2.821982   2.926138   4.125274
    15  H    1.099182   2.065481   3.372828   3.939330   4.345671
    16  H    5.427369   4.206080   2.928611   3.039742   2.164293
    17  H    7.081316   5.666671   4.755133   5.294946   3.375830
    18  H    7.085074   5.666379   5.322757   6.269987   3.852113
    19  H    5.436939   4.204888   4.496810   5.674174   3.419336
                    6          7          8          9         10
     6  C    0.000000
     7  C    1.400904   0.000000
     8  C    2.438071   1.399065   0.000000
     9  C    2.845784   2.437982   1.400907   0.000000
    10  C    2.425465   2.758676   2.379575   1.385647   0.000000
    11  C    3.666019   4.231383   3.828463   2.614033   1.494998
    12  O    4.789516   5.176599   4.516064   3.148913   2.439037
    13  H    5.357780   6.468860   6.580196   5.626686   4.298657
    14  H    5.355082   6.467726   6.581183   5.629097   4.300143
    15  H    5.720612   6.597798   6.375011   5.181230   4.000914
    16  H    1.092703   2.180559   3.434232   3.938469   3.419190
    17  H    2.160737   1.093315   2.156945   3.420622   3.851863
    18  H    3.420681   2.156952   1.093298   2.160785   3.375840
    19  H    3.938469   3.434248   2.180684   1.092704   2.164284
                   11         12         13         14         15
    11  C    0.000000
    12  O    1.205588   0.000000
    13  H    3.226027   3.664381   0.000000
    14  H    3.229184   3.669903   1.793846   0.000000
    15  H    2.568867   2.479944   1.797215   1.797411   0.000000
    16  H    4.499123   5.674477   5.639132   5.634622   6.261924
    17  H    5.323278   6.265140   7.445724   7.444029   7.662677
    18  H    4.754090   5.286202   7.616065   7.617601   7.321993
    19  H    2.925874   3.028657   6.084299   6.088289   5.367756
                   16         17         18         19
    16  H    0.000000
    17  H    2.510695   0.000000
    18  H    4.328500   2.471013   0.000000
    19  H    5.031141   4.328590   2.510973   0.000000
 Symmetry turned off by external request.
 Stoichiometry    C9H7NO2
 Framework group  C1[X(C9H7NO2)]
 Deg. of freedom    51
 Full point group                 C1      NOp   1
 Rotational constants (GHZ):           1.7407937           0.8646341           0.5798472
 Leave Link  202 at Wed Feb 28 21:01:06 2024, MaxMem=  2147483648 cpu:               0.7 elap:               0.0
 (Enter /software/gaussian-16RevA.03-el7-x86_64/g16/l601.exe)
 Copying SCF densities to generalized density rwf, IOpCl= 0 IROHF=0.

 **********************************************************************

            Population analysis using the SCF density.

 **********************************************************************

 Alpha  occ. eigenvalues --  -19.26322 -19.26259 -14.50101 -10.43226 -10.43075
 Alpha  occ. eigenvalues --  -10.33234 -10.33024 -10.32982 -10.32868 -10.32859
 Alpha  occ. eigenvalues --  -10.32520 -10.32480  -1.17667  -1.15609  -1.06478
 Alpha  occ. eigenvalues --   -0.98199  -0.89918  -0.86972  -0.81496  -0.76722
 Alpha  occ. eigenvalues --   -0.72474  -0.71291  -0.66472  -0.61351  -0.59280
 Alpha  occ. eigenvalues --   -0.59018  -0.57778  -0.54722  -0.54652  -0.53701
 Alpha  occ. eigenvalues --   -0.52835  -0.51277  -0.49982  -0.49283  -0.46985
 Alpha  occ. eigenvalues --   -0.46955  -0.46038  -0.38628  -0.37204  -0.36335
 Alpha  occ. eigenvalues --   -0.35794  -0.34858
 Alpha virt. eigenvalues --   -0.02095   0.02366   0.09981   0.14703   0.14770
 Alpha virt. eigenvalues --    0.16177   0.18405   0.20766   0.21356   0.22697
 Alpha virt. eigenvalues --    0.22737   0.23739   0.24536   0.27299   0.28868
 Alpha virt. eigenvalues --    0.30847   0.31805   0.35175   0.36301   0.37367
 Alpha virt. eigenvalues --    0.39380   0.40754   0.41976   0.44482   0.46210
 Alpha virt. eigenvalues --    0.48703   0.49052   0.50891   0.53599   0.53656
 Alpha virt. eigenvalues --    0.54024   0.55045   0.55381   0.57504   0.59176
 Alpha virt. eigenvalues --    0.60050   0.64770   0.66637   0.67707   0.70399
 Alpha virt. eigenvalues --    0.71724   0.72051   0.72681   0.73480   0.74429
 Alpha virt. eigenvalues --    0.75313   0.75624   0.76462   0.77393   0.77521
 Alpha virt. eigenvalues --    0.77952   0.79865   0.81619   0.82250   0.82977
 Alpha virt. eigenvalues --    0.84237   0.85637   0.86925   0.90803   0.93401
 Alpha virt. eigenvalues --    0.97138   0.97613   1.00873   1.05934   1.10564
 Alpha virt. eigenvalues --    1.11687   1.13474   1.16259   1.17660   1.21927
 Alpha virt. eigenvalues --    1.22293   1.25513   1.29920   1.33408   1.33802
 Alpha virt. eigenvalues --    1.36338   1.40662   1.42265   1.48857   1.51942
 Alpha virt. eigenvalues --    1.51988   1.53561   1.54323   1.54661   1.54836
 Alpha virt. eigenvalues --    1.56651   1.68530   1.70424   1.75645   1.82441
 Alpha virt. eigenvalues --    1.83616   1.86403   1.87384   1.90851   1.93048
 Alpha virt. eigenvalues --    1.97762   1.99499   2.00556   2.02941   2.07287
 Alpha virt. eigenvalues --    2.08689   2.09330   2.15341   2.15579   2.17841
 Alpha virt. eigenvalues --    2.21763   2.22615   2.25118   2.30249   2.32724
 Alpha virt. eigenvalues --    2.34892   2.35158   2.37527   2.43424   2.49503
 Alpha virt. eigenvalues --    2.52144   2.55764   2.58896   2.59819   2.66054
 Alpha virt. eigenvalues --    2.70959   2.73733   2.76136   2.77596   2.78308
 Alpha virt. eigenvalues --    2.79062   2.84509   2.84887   2.88666   2.89648
 Alpha virt. eigenvalues --    2.95934   3.21092   3.23681   3.26738   3.28105
 Alpha virt. eigenvalues --    3.40655   3.47889   3.68361   3.71676   3.75647
          Condensed to atoms (all electrons):
               1          2          3          4          5          6
     1  C    4.789601   0.255394  -0.021940   0.009387   0.011484  -0.000164
     2  N    0.255394   7.024757   0.308269  -0.097793  -0.138577   0.007546
     3  C   -0.021940   0.308269   4.605919   0.796758   0.183498  -0.072037
     4  O    0.009387  -0.097793   0.796758   7.597037  -0.097320   0.008104
     5  C    0.011484  -0.138577   0.183498  -0.097320   5.578818   0.319934
     6  C   -0.000164   0.007546  -0.072037   0.008104   0.319934   5.235127
     7  C    0.000004  -0.000057   0.013912   0.000440   0.097720   0.263521
     8  C    0.000005  -0.000028  -0.001266  -0.000015  -0.142640   0.089805
     9  C   -0.000081   0.007134   0.015359  -0.000047   0.019987  -0.116671
    10  C    0.010126  -0.150850  -0.030182   0.002148   0.271979   0.019393
    11  C   -0.028968   0.323970  -0.079430  -0.000393  -0.042060   0.015421
    12  O   -0.004948  -0.093006  -0.000471  -0.000013   0.002367  -0.000030
    13  H    0.396929  -0.026203  -0.002991   0.001940   0.000839   0.000006
    14  H    0.396759  -0.026198  -0.003004   0.002029   0.000869   0.000006
    15  H    0.381946  -0.026508   0.004353   0.000185  -0.000601   0.000012
    16  H   -0.000019   0.000462  -0.008067   0.003933  -0.067883   0.441633
    17  H   -0.000000   0.000001  -0.000216  -0.000001   0.011818  -0.063815
    18  H   -0.000000   0.000001   0.000026  -0.000000  -0.001361   0.010661
    19  H   -0.000006   0.000443  -0.000265   0.000001   0.012280  -0.001509
               7          8          9         10         11         12
     1  C    0.000004   0.000005  -0.000081   0.010126  -0.028968  -0.004948
     2  N   -0.000057  -0.000028   0.007134  -0.150850   0.323970  -0.093006
     3  C    0.013912  -0.001266   0.015359  -0.030182  -0.079430  -0.000471
     4  O    0.000440  -0.000015  -0.000047   0.002148  -0.000393  -0.000013
     5  C    0.097720  -0.142640   0.019987   0.271979  -0.042060   0.002367
     6  C    0.263521   0.089805  -0.116671   0.019393   0.015421  -0.000030
     7  C    5.152813   0.286334   0.090116  -0.142951  -0.001251  -0.000016
     8  C    0.286334   5.152443   0.264014   0.097133   0.013791   0.000467
     9  C    0.090116   0.264014   5.233022   0.321091  -0.071517   0.008049
    10  C   -0.142951   0.097133   0.321091   5.625194   0.154126  -0.101689
    11  C   -0.001251   0.013791  -0.071517   0.154126   4.629043   0.797554
    12  O   -0.000016   0.000467   0.008049  -0.101689   0.797554   7.590985
    13  H   -0.000001   0.000000   0.000006  -0.000520   0.001853   0.000105
    14  H   -0.000001   0.000000   0.000006  -0.000520   0.001903   0.000106
    15  H    0.000001  -0.000002  -0.000017   0.004192  -0.003621   0.017483
    16  H   -0.061057   0.010196  -0.001567   0.012239  -0.000200   0.000001
    17  H    0.436787  -0.060907   0.010627  -0.001348   0.000028  -0.000000
    18  H   -0.060947   0.436942  -0.063957   0.011868  -0.000214  -0.000001
    19  H    0.010161  -0.060718   0.440904  -0.067894  -0.007425   0.003964
              13         14         15         16         17         18
     1  C    0.396929   0.396759   0.381946  -0.000019  -0.000000  -0.000000
     2  N   -0.026203  -0.026198  -0.026508   0.000462   0.000001   0.000001
     3  C   -0.002991  -0.003004   0.004353  -0.008067  -0.000216   0.000026
     4  O    0.001940   0.002029   0.000185   0.003933  -0.000001  -0.000000
     5  C    0.000839   0.000869  -0.000601  -0.067883   0.011818  -0.001361
     6  C    0.000006   0.000006   0.000012   0.441633  -0.063815   0.010661
     7  C   -0.000001  -0.000001   0.000001  -0.061057   0.436787  -0.060947
     8  C    0.000000   0.000000  -0.000002   0.010196  -0.060907   0.436942
     9  C    0.000006   0.000006  -0.000017  -0.001567   0.010627  -0.063957
    10  C   -0.000520  -0.000520   0.004192   0.012239  -0.001348   0.011868
    11  C    0.001853   0.001903  -0.003621  -0.000200   0.000028  -0.000214
    12  O    0.000105   0.000106   0.017483   0.000001  -0.000000  -0.000001
    13  H    0.516431  -0.023025  -0.017461  -0.000001  -0.000000   0.000000
    14  H   -0.023025   0.516381  -0.017381  -0.000001  -0.000000   0.000000
    15  H   -0.017461  -0.017381   0.499020  -0.000001   0.000000  -0.000000
    16  H   -0.000001  -0.000001  -0.000001   0.557241  -0.007666  -0.000113
    17  H   -0.000000  -0.000000   0.000000  -0.007666   0.555224  -0.008832
    18  H    0.000000   0.000000  -0.000000  -0.000113  -0.008832   0.555168
    19  H   -0.000000  -0.000000  -0.000011   0.000018  -0.000112  -0.007691
              19
     1  C   -0.000006
     2  N    0.000443
     3  C   -0.000265
     4  O    0.000001
     5  C    0.012280
     6  C   -0.001509
     7  C    0.010161
     8  C   -0.060718
     9  C    0.440904
    10  C   -0.067894
    11  C   -0.007425
    12  O    0.003964
    13  H   -0.000000
    14  H   -0.000000
    15  H   -0.000011
    16  H    0.000018
    17  H   -0.000112
    18  H   -0.007691
    19  H    0.556601
 Mulliken charges:
               1
     1  C   -0.195509
     2  N   -0.368756
     3  C    0.291777
     4  O   -0.226380
     5  C   -0.021152
     6  C   -0.156941
     7  C   -0.085527
     8  C   -0.085554
     9  C   -0.156459
    10  C   -0.033533
    11  C    0.297391
    12  O   -0.220907
    13  H    0.152093
    14  H    0.152071
    15  H    0.158412
    16  H    0.120852
    17  H    0.128413
    18  H    0.128451
    19  H    0.121259
 Sum of Mulliken charges =  -0.00000
 Mulliken charges with hydrogens summed into heavy atoms:
               1
     1  C    0.267067
     2  N   -0.368756
     3  C    0.291777
     4  O   -0.226380
     5  C   -0.021152
     6  C   -0.036090
     7  C    0.042886
     8  C    0.042896
     9  C   -0.035199
    10  C   -0.033533
    11  C    0.297391
    12  O   -0.220907
 APT charges:
               1
     1  C   -1.219554
     2  N   -0.094340
     3  C   -0.706305
     4  O    0.553070
     5  C   -0.200329
     6  C   -0.630926
     7  C   -0.571852
     8  C   -0.572515
     9  C   -0.631034
    10  C   -0.202325
    11  C   -0.687480
    12  O    0.548485
    13  H    0.524822
    14  H    0.524869
    15  H    0.524468
    16  H    0.583733
    17  H    0.836348
    18  H    0.836604
    19  H    0.584261
 Sum of APT charges =  -0.00000
 APT charges with hydrogens summed into heavy atoms:
               1
     1  C    0.354605
     2  N   -0.094340
     3  C   -0.706305
     4  O    0.553070
     5  C   -0.200329
     6  C   -0.047193
     7  C    0.264496
     8  C    0.264089
     9  C   -0.046773
    10  C   -0.202325
    11  C   -0.687480
    12  O    0.548485
 Electronic spatial extent (au):  <R**2>=           1872.4200
 Charge=             -0.0000 electrons
 Dipole moment (field-independent basis, Debye):
    X=              2.8333    Y=             -0.2057    Z=             -0.1884  Tot=              2.8470
 Quadrupole moment (field-independent basis, Debye-Ang):
   XX=            -54.2436   YY=            -77.5878   ZZ=            -69.4654
   XY=             -2.2647   XZ=             -1.3129   YZ=             -2.4327
 Traceless Quadrupole moment (field-independent basis, Debye-Ang):
   XX=             12.8553   YY=            -10.4889   ZZ=             -2.3665
   XY=             -2.2647   XZ=             -1.3129   YZ=             -2.4327
 Octapole moment (field-independent basis, Debye-Ang**2):
  XXX=             15.1031  YYY=             -8.6432  ZZZ=              0.2949  XYY=             34.7534
  XXY=              6.7658  XXZ=              0.5833  XZZ=             -4.0807  YZZ=             -1.8334
  YYZ=             -4.0504  XYZ=             11.8879
 Hexadecapole moment (field-independent basis, Debye-Ang**3):
 XXXX=          -1372.0721 YYYY=           -760.4501 ZZZZ=           -132.5847 XXXY=              8.8349
 XXXZ=             25.5937 YYYX=             24.4476 YYYZ=           -107.8593 ZZZX=             46.7308
 ZZZY=            -94.1863 XXYY=           -388.9497 XXZZ=           -295.9253 YYZZ=           -143.9377
 XXYZ=            -28.3675 YYXZ=             11.1872 ZZXY=             11.6896
 N-N= 6.564190605858D+02 E-N=-2.597179098439D+03  KE= 5.466540066988D+02
  Exact polarizability:   0.000   0.000   0.000   0.000   0.000   0.000
 Approx polarizability: 135.345   3.306 144.701  -2.447  24.221  67.339
 No NMR shielding tensors so no spin-rotation constants.
 Leave Link  601 at Wed Feb 28 21:01:06 2024, MaxMem=  2147483648 cpu:               3.8 elap:               0.2
 (Enter /software/gaussian-16RevA.03-el7-x86_64/g16/l716.exe)
 Dipole        = 1.11471666D+00-8.09415838D-02-7.41293576D-02
 Polarizability= 0.00000000D+00 0.00000000D+00 0.00000000D+00
                 0.00000000D+00 0.00000000D+00 0.00000000D+00
 -------------------------------------------------------------------
 Center     Atomic                   Forces (Hartrees/Bohr)
 Number     Number              X              Y              Z
 -------------------------------------------------------------------
      1        6           0.000001790   -0.000111945   -0.000028748
      2        7           0.000033413    0.000041457   -0.000008004
      3        6          -0.000018713    0.000066550    0.000019468
      4        8          -0.000030005   -0.000049556   -0.000013506
      5        6           0.000012142    0.000008002    0.000004710
      6        6          -0.000004203    0.000001972    0.000000367
      7        6           0.000000963   -0.000020126   -0.000006998
      8        6           0.000004698    0.000023093    0.000005952
      9        6          -0.000005926    0.000004279    0.000001464
     10        6           0.000004489   -0.000003257   -0.000001146
     11        6          -0.000011622   -0.000023446    0.000002848
     12        8           0.000022408    0.000057565    0.000011162
     13        1          -0.000020981    0.000002046    0.000008419
     14        1          -0.000037371    0.000008660    0.000004276
     15        1           0.000057187   -0.000011852   -0.000000374
     16        1           0.000001593    0.000008729    0.000001531
     17        1          -0.000003251    0.000003460    0.000000164
     18        1          -0.000004889    0.000001195    0.000000217
     19        1          -0.000001722   -0.000006827   -0.000001801
 -------------------------------------------------------------------
 Cartesian Forces:  Max     0.000111945 RMS     0.000025332
 Leave Link  716 at Wed Feb 28 21:01:06 2024, MaxMem=  2147483648 cpu:               0.7 elap:               0.0
 (Enter /software/gaussian-16RevA.03-el7-x86_64/g16/l9999.exe)
 1\1\GINC-MIDWAY2-0620\FOpt\RwB97XD\def2SVPP\C9H7N1O2\ALESSANDRI\28-Feb
 -2024\0\\#P wB97XD/Def2SVPP opt=(MaxCycles=500, RecalcFC=50) freq scrf
 =(pcm,solvent=TetraHydroFuran) nosymm int(grid=ultrafine) scf=(xqc,tig
 ht)\\Cavity NMPHTH solvent\\0,1\C,-3.1879487414,0.2553652946,0.2179911
 28\N,-1.7507727539,0.1468583494,0.1220735037\C,-1.0935228691,-1.025915
 2844,-0.2463252061\O,-1.6376631669,-2.0660584106,-0.5219965676\C,0.365
 5267718,-0.7021118301,-0.2190796063\C,1.4671717219,-1.4949804124,-0.49
 76788051\C,2.7310367432,-0.9014963002,-0.3838653775\C,2.8686816031,0.4
 379261021,-0.0038849233\C,1.7470547892,1.2294782664,0.2752881959\C,0.5
 025906594,0.6312612008,0.1592526925\C,-0.864474782,1.1931756428,0.3837
 613196\O,-1.1778962417,2.3076997944,0.7199849509\H,-3.6566530558,0.049
 2733632,-0.757501453\H,-3.579502734,-0.4567192502,0.9617724542\H,-3.42
 76232553,1.2815658148,0.530513242\H,1.3524913945,-2.5405072068,-0.7938
 563065\H,3.6257093851,-1.4933325191,-0.595121432\H,3.8687846021,0.8723
 270165,0.0760515369\H,1.8470099301,2.2761893687,0.5726216537\\Version=
 ES64L-G16RevA.03\HF=-551.8209029\RMSD=5.504e-09\RMSF=2.533e-05\Dipole=
 1.1147167,-0.0809416,-0.0741294\Polar=0.,0.,0.,0.,0.,0.\Quadrupole=9.5
 576117,-7.7982039,-1.7594078,-1.6837342,-0.9760985,-1.808638\PG=C01 [X
 (C9H7N1O2)]\\@


 A leading authority is anyone who has guessed right more than once.
 -- Frank A. Clark
 Leave Link 9999 at Wed Feb 28 21:01:07 2024, MaxMem=  2147483648 cpu:               1.3 elap:               0.2
 Job cpu time:       0 days  1 hours  3 minutes  2.3 seconds.
 Elapsed time:       0 days  0 hours  2 minutes 22.5 seconds.
 File lengths (MBytes):  RWF=    408 Int=      0 D2E=      0 Chk=     16 Scr=      8
 Normal termination of Gaussian 16 at Wed Feb 28 21:01:07 2024.
 (Enter /software/gaussian-16RevA.03-el7-x86_64/g16/l1.exe)
 Link1:  Proceeding to internal job step number  2.
 ---------------------------------------------------------------------
 #P Geom=AllCheck Guess=TCheck SCRF=Check GenChk RwB97XD/def2SVPP Freq
 ---------------------------------------------------------------------
 1/6=500,10=4,29=7,30=1,38=1,40=1,71=50/1,3;
 2/12=2,15=1,40=1/2;
 3/5=43,7=202,11=2,14=-4,25=1,30=1,70=2,71=2,74=-58,75=-5,116=1,140=1/1,2,3;
 4/5=101/1;
 5/5=2,8=3,13=1,32=2,38=6,98=1/2,8;
 8/6=4,10=90,11=11/1;
 11/6=1,8=1,9=11,15=111,16=1,31=1/1,2,10;
 10/6=1,31=1/2;
 6/7=2,8=2,9=2,10=2,28=1/1;
 7/8=1,10=1,25=1,30=1/1,2,3,16;
 1/6=500,10=4,30=1,71=50/3;
 99//99;
 Leave Link    1 at Wed Feb 28 21:01:08 2024, MaxMem=  2147483648 cpu:               0.9 elap:               0.0
 (Enter /software/gaussian-16RevA.03-el7-x86_64/g16/l101.exe)
 Structure from the checkpoint file:  "NMPHTH-cavity-in-THF-wB97XD.chk"
 ---------------------
 Cavity NMPHTH solvent
 ---------------------
 Charge =  0 Multiplicity = 1
 Redundant internal coordinates found in file.  (old form).
 C,0,-3.1879487414,0.2553652946,0.217991128
 N,0,-1.7507727539,0.1468583494,0.1220735037
 C,0,-1.0935228691,-1.0259152844,-0.2463252061
 O,0,-1.6376631669,-2.0660584106,-0.5219965676
 C,0,0.3655267718,-0.7021118301,-0.2190796063
 C,0,1.4671717219,-1.4949804124,-0.4976788051
 C,0,2.7310367432,-0.9014963002,-0.3838653775
 C,0,2.8686816031,0.4379261021,-0.0038849233
 C,0,1.7470547892,1.2294782664,0.2752881959
 C,0,0.5025906594,0.6312612008,0.1592526925
 C,0,-0.864474782,1.1931756428,0.3837613196
 O,0,-1.1778962417,2.3076997944,0.7199849509
 H,0,-3.6566530558,0.0492733632,-0.757501453
 H,0,-3.579502734,-0.4567192502,0.9617724542
 H,0,-3.4276232553,1.2815658148,0.530513242
 H,0,1.3524913945,-2.5405072068,-0.7938563065
 H,0,3.6257093851,-1.4933325191,-0.595121432
 H,0,3.8687846021,0.8723270165,0.0760515369
 H,0,1.8470099301,2.2761893687,0.5726216537
 Recover connectivity data from disk.
 ITRead=  0  0  0  0  0  0  0  0  0  0  0  0  0  0  0  0  0  0  0
 MicOpt= -1 -1 -1 -1 -1 -1 -1 -1 -1 -1 -1 -1 -1 -1 -1 -1 -1 -1 -1
 NAtoms=     19 NQM=       19 NQMF=       0 NMMI=      0 NMMIF=      0
                NMic=       0 NMicF=      0.
                    Isotopes and Nuclear Properties:
 (Nuclear quadrupole moments (NQMom) in fm**2, nuclear magnetic moments (NMagM)
  in nuclear magnetons)

  Atom         1           2           3           4           5           6           7           8           9          10
 IAtWgt=          12          14          12          16          12          12          12          12          12          12
 AtmWgt=  12.0000000  14.0030740  12.0000000  15.9949146  12.0000000  12.0000000  12.0000000  12.0000000  12.0000000  12.0000000
 NucSpn=           0           2           0           0           0           0           0           0           0           0
 AtZEff=   3.6000000   4.5500000   3.6000000   5.6000000   3.6000000   3.6000000   3.6000000   3.6000000   3.6000000   3.6000000
 NQMom=    0.0000000   2.0440000   0.0000000   0.0000000   0.0000000   0.0000000   0.0000000   0.0000000   0.0000000   0.0000000
 NMagM=    0.0000000   0.4037610   0.0000000   0.0000000   0.0000000   0.0000000   0.0000000   0.0000000   0.0000000   0.0000000
 AtZNuc=   6.0000000   7.0000000   6.0000000   8.0000000   6.0000000   6.0000000   6.0000000   6.0000000   6.0000000   6.0000000

  Atom        11          12          13          14          15          16          17          18          19
 IAtWgt=          12          16           1           1           1           1           1           1           1
 AtmWgt=  12.0000000  15.9949146   1.0078250   1.0078250   1.0078250   1.0078250   1.0078250   1.0078250   1.0078250
 NucSpn=           0           0           1           1           1           1           1           1           1
 AtZEff=   3.6000000   5.6000000   1.0000000   1.0000000   1.0000000   1.0000000   1.0000000   1.0000000   1.0000000
 NQMom=    0.0000000   0.0000000   0.0000000   0.0000000   0.0000000   0.0000000   0.0000000   0.0000000   0.0000000
 NMagM=    0.0000000   0.0000000   2.7928460   2.7928460   2.7928460   2.7928460   2.7928460   2.7928460   2.7928460
 AtZNuc=   6.0000000   8.0000000   1.0000000   1.0000000   1.0000000   1.0000000   1.0000000   1.0000000   1.0000000
 Leave Link  101 at Wed Feb 28 21:01:08 2024, MaxMem=  2147483648 cpu:               9.9 elap:               0.4
 (Enter /software/gaussian-16RevA.03-el7-x86_64/g16/l103.exe)

 GradGradGradGradGradGradGradGradGradGradGradGradGradGradGradGradGradGrad
 Berny optimization.
 Initialization pass.
                           ----------------------------
                           !    Initial Parameters    !
                           ! (Angstroms and Degrees)  !
 --------------------------                            --------------------------
 ! Name  Definition              Value          Derivative Info.                !
 --------------------------------------------------------------------------------
 ! R1    R(1,2)                  1.4445         calculate D2E/DX2 analytically  !
 ! R2    R(1,13)                 1.1017         calculate D2E/DX2 analytically  !
 ! R3    R(1,14)                 1.1016         calculate D2E/DX2 analytically  !
 ! R4    R(1,15)                 1.0992         calculate D2E/DX2 analytically  !
 ! R5    R(2,3)                  1.3939         calculate D2E/DX2 analytically  !
 ! R6    R(2,11)                 1.396          calculate D2E/DX2 analytically  !
 ! R7    R(3,4)                  1.2058         calculate D2E/DX2 analytically  !
 ! R8    R(3,5)                  1.4948         calculate D2E/DX2 analytically  !
 ! R9    R(5,6)                  1.3856         calculate D2E/DX2 analytically  !
 ! R10   R(5,10)                 1.3928         calculate D2E/DX2 analytically  !
 ! R11   R(6,7)                  1.4009         calculate D2E/DX2 analytically  !
 ! R12   R(6,16)                 1.0927         calculate D2E/DX2 analytically  !
 ! R13   R(7,8)                  1.3991         calculate D2E/DX2 analytically  !
 ! R14   R(7,17)                 1.0933         calculate D2E/DX2 analytically  !
 ! R15   R(8,9)                  1.4009         calculate D2E/DX2 analytically  !
 ! R16   R(8,18)                 1.0933         calculate D2E/DX2 analytically  !
 ! R17   R(9,10)                 1.3856         calculate D2E/DX2 analytically  !
 ! R18   R(9,19)                 1.0927         calculate D2E/DX2 analytically  !
 ! R19   R(10,11)                1.495          calculate D2E/DX2 analytically  !
 ! R20   R(11,12)                1.2056         calculate D2E/DX2 analytically  !
 ! A1    A(2,1,13)             110.5145         calculate D2E/DX2 analytically  !
 ! A2    A(2,1,14)             110.4823         calculate D2E/DX2 analytically  !
 ! A3    A(2,1,15)             107.816          calculate D2E/DX2 analytically  !
 ! A4    A(13,1,14)            109.0072         calculate D2E/DX2 analytically  !
 ! A5    A(13,1,15)            109.4894         calculate D2E/DX2 analytically  !
 ! A6    A(14,1,15)            109.5122         calculate D2E/DX2 analytically  !
 ! A7    A(1,2,3)              123.3585         calculate D2E/DX2 analytically  !
 ! A8    A(1,2,11)             124.2593         calculate D2E/DX2 analytically  !
 ! A9    A(3,2,11)             112.3822         calculate D2E/DX2 analytically  !
 ! A10   A(2,3,4)              124.9868         calculate D2E/DX2 analytically  !
 ! A11   A(2,3,5)              105.8524         calculate D2E/DX2 analytically  !
 ! A12   A(4,3,5)              129.1608         calculate D2E/DX2 analytically  !
 ! A13   A(3,5,6)              130.4237         calculate D2E/DX2 analytically  !
 ! A14   A(3,5,10)             107.9623         calculate D2E/DX2 analytically  !
 ! A15   A(6,5,10)             121.6139         calculate D2E/DX2 analytically  !
 ! A16   A(5,6,7)              117.293          calculate D2E/DX2 analytically  !
 ! A17   A(5,6,16)             121.2366         calculate D2E/DX2 analytically  !
 ! A18   A(7,6,16)             121.4705         calculate D2E/DX2 analytically  !
 ! A19   A(6,7,8)              121.0916         calculate D2E/DX2 analytically  !
 ! A20   A(6,7,17)             119.5536         calculate D2E/DX2 analytically  !
 ! A21   A(8,7,17)             119.3548         calculate D2E/DX2 analytically  !
 ! A22   A(7,8,9)              121.084          calculate D2E/DX2 analytically  !
 ! A23   A(7,8,18)             119.3568         calculate D2E/DX2 analytically  !
 ! A24   A(9,8,18)             119.5591         calculate D2E/DX2 analytically  !
 ! A25   A(8,9,10)             117.2866         calculate D2E/DX2 analytically  !
 ! A26   A(8,9,19)             121.4821         calculate D2E/DX2 analytically  !
 ! A27   A(10,9,19)            121.2312         calculate D2E/DX2 analytically  !
 ! A28   A(5,10,9)             121.6308         calculate D2E/DX2 analytically  !
 ! A29   A(5,10,11)            108.0976         calculate D2E/DX2 analytically  !
 ! A30   A(9,10,11)            130.2715         calculate D2E/DX2 analytically  !
 ! A31   A(2,11,10)            105.7055         calculate D2E/DX2 analytically  !
 ! A32   A(2,11,12)            125.4595         calculate D2E/DX2 analytically  !
 ! A33   A(10,11,12)           128.835          calculate D2E/DX2 analytically  !
 ! D1    D(13,1,2,3)           -60.6439         calculate D2E/DX2 analytically  !
 ! D2    D(13,1,2,11)          119.3166         calculate D2E/DX2 analytically  !
 ! D3    D(14,1,2,3)            60.0847         calculate D2E/DX2 analytically  !
 ! D4    D(14,1,2,11)         -119.9548         calculate D2E/DX2 analytically  !
 ! D5    D(15,1,2,3)           179.7249         calculate D2E/DX2 analytically  !
 ! D6    D(15,1,2,11)           -0.3146         calculate D2E/DX2 analytically  !
 ! D7    D(1,2,3,4)             -0.024          calculate D2E/DX2 analytically  !
 ! D8    D(1,2,3,5)            179.9706         calculate D2E/DX2 analytically  !
 ! D9    D(11,2,3,4)          -179.9888         calculate D2E/DX2 analytically  !
 ! D10   D(11,2,3,5)             0.0058         calculate D2E/DX2 analytically  !
 ! D11   D(1,2,11,10)         -179.9591         calculate D2E/DX2 analytically  !
 ! D12   D(1,2,11,12)            0.0512         calculate D2E/DX2 analytically  !
 ! D13   D(3,2,11,10)            0.0052         calculate D2E/DX2 analytically  !
 ! D14   D(3,2,11,12)         -179.9845         calculate D2E/DX2 analytically  !
 ! D15   D(2,3,5,6)            179.9844         calculate D2E/DX2 analytically  !
 ! D16   D(2,3,5,10)            -0.0155         calculate D2E/DX2 analytically  !
 ! D17   D(4,3,5,6)             -0.0213         calculate D2E/DX2 analytically  !
 ! D18   D(4,3,5,10)           179.9788         calculate D2E/DX2 analytically  !
 ! D19   D(3,5,6,7)            179.9976         calculate D2E/DX2 analytically  !
 ! D20   D(3,5,6,16)            -0.0089         calculate D2E/DX2 analytically  !
 ! D21   D(10,5,6,7)            -0.0026         calculate D2E/DX2 analytically  !
 ! D22   D(10,5,6,16)          179.9909         calculate D2E/DX2 analytically  !
 ! D23   D(3,5,10,9)          -179.9963         calculate D2E/DX2 analytically  !
 ! D24   D(3,5,10,11)            0.0187         calculate D2E/DX2 analytically  !
 ! D25   D(6,5,10,9)             0.0038         calculate D2E/DX2 analytically  !
 ! D26   D(6,5,10,11)         -179.9812         calculate D2E/DX2 analytically  !
 ! D27   D(5,6,7,8)             -0.0006         calculate D2E/DX2 analytically  !
 ! D28   D(5,6,7,17)          -179.9992         calculate D2E/DX2 analytically  !
 ! D29   D(16,6,7,8)          -179.9941         calculate D2E/DX2 analytically  !
 ! D30   D(16,6,7,17)            0.0073         calculate D2E/DX2 analytically  !
 ! D31   D(6,7,8,9)              0.0028         calculate D2E/DX2 analytically  !
 ! D32   D(6,7,8,18)           179.9981         calculate D2E/DX2 analytically  !
 ! D33   D(17,7,8,9)          -179.9986         calculate D2E/DX2 analytically  !
 ! D34   D(17,7,8,18)           -0.0034         calculate D2E/DX2 analytically  !
 ! D35   D(7,8,9,10)            -0.0017         calculate D2E/DX2 analytically  !
 ! D36   D(7,8,9,19)           179.9972         calculate D2E/DX2 analytically  !
 ! D37   D(18,8,9,10)         -179.997          calculate D2E/DX2 analytically  !
 ! D38   D(18,8,9,19)            0.002          calculate D2E/DX2 analytically  !
 ! D39   D(8,9,10,5)            -0.0015         calculate D2E/DX2 analytically  !
 ! D40   D(8,9,10,11)          179.9798         calculate D2E/DX2 analytically  !
 ! D41   D(19,9,10,5)          179.9995         calculate D2E/DX2 analytically  !
 ! D42   D(19,9,10,11)          -0.0192         calculate D2E/DX2 analytically  !
 ! D43   D(5,10,11,2)           -0.0151         calculate D2E/DX2 analytically  !
 ! D44   D(5,10,11,12)         179.9741         calculate D2E/DX2 analytically  !
 ! D45   D(9,10,11,2)         -179.9984         calculate D2E/DX2 analytically  !
 ! D46   D(9,10,11,12)          -0.0091         calculate D2E/DX2 analytically  !
 --------------------------------------------------------------------------------
 Trust Radius=3.00D-01 FncErr=1.00D-07 GrdErr=1.00D-07 EigMax=2.50D+02 EigMin=1.00D-04
 Number of steps in this run=      2 maximum allowed number of steps=      2.
 Step   0 in ReCalcFC=50 IGetFC= 4 compute analytic Hessian.
 GradGradGradGradGradGradGradGradGradGradGradGradGradGradGradGradGradGrad

 Leave Link  103 at Wed Feb 28 21:01:08 2024, MaxMem=  2147483648 cpu:               0.4 elap:               0.0
 (Enter /software/gaussian-16RevA.03-el7-x86_64/g16/l202.exe)
                          Input orientation:                          
 ---------------------------------------------------------------------
 Center     Atomic      Atomic             Coordinates (Angstroms)
 Number     Number       Type             X           Y           Z
 ---------------------------------------------------------------------
      1          6           0       -3.187949    0.255365    0.217991
      2          7           0       -1.750773    0.146858    0.122074
      3          6           0       -1.093523   -1.025915   -0.246325
      4          8           0       -1.637663   -2.066058   -0.521997
      5          6           0        0.365527   -0.702112   -0.219080
      6          6           0        1.467172   -1.494980   -0.497679
      7          6           0        2.731037   -0.901496   -0.383865
      8          6           0        2.868682    0.437926   -0.003885
      9          6           0        1.747055    1.229478    0.275288
     10          6           0        0.502591    0.631261    0.159253
     11          6           0       -0.864475    1.193176    0.383761
     12          8           0       -1.177896    2.307700    0.719985
     13          1           0       -3.656653    0.049273   -0.757501
     14          1           0       -3.579503   -0.456719    0.961772
     15          1           0       -3.427623    1.281566    0.530513
     16          1           0        1.352491   -2.540507   -0.793856
     17          1           0        3.625709   -1.493333   -0.595121
     18          1           0        3.868785    0.872327    0.076052
     19          1           0        1.847010    2.276189    0.572622
 ---------------------------------------------------------------------
                    Distance matrix (angstroms):
                    1          2          3          4          5
     1  C    0.000000
     2  N    1.444454   0.000000
     3  C    2.498778   1.393949   0.000000
     4  O    2.887902   2.307514   1.205811   0.000000
     5  C    3.706074   2.305615   1.494797   2.442310   0.000000
     6  C    5.024544   3.665364   2.615408   3.157011   1.385597
     7  C    6.060936   4.630512   3.829054   4.523364   2.379610
     8  C    6.063442   4.630329   4.230919   5.181266   2.758945
     9  C    5.030551   3.664743   3.664391   4.790881   2.425708
    10  C    3.710098   2.305141   2.336302   3.510031   1.392769
    11  C    2.511075   1.395989   2.318154   3.469989   2.338469
    12  O    2.916228   2.314070   3.471867   4.569865   3.510408
    13  H    1.101700   2.101322   2.826122   2.933669   4.127034
    14  H    1.101630   2.100870   2.821982   2.926138   4.125274
    15  H    1.099182   2.065481   3.372828   3.939330   4.345671
    16  H    5.427369   4.206080   2.928611   3.039742   2.164293
    17  H    7.081316   5.666671   4.755133   5.294946   3.375830
    18  H    7.085074   5.666379   5.322757   6.269987   3.852113
    19  H    5.436939   4.204888   4.496810   5.674174   3.419336
                    6          7          8          9         10
     6  C    0.000000
     7  C    1.400904   0.000000
     8  C    2.438071   1.399065   0.000000
     9  C    2.845784   2.437982   1.400907   0.000000
    10  C    2.425465   2.758676   2.379575   1.385647   0.000000
    11  C    3.666019   4.231383   3.828463   2.614033   1.494998
    12  O    4.789516   5.176599   4.516064   3.148913   2.439037
    13  H    5.357780   6.468860   6.580196   5.626686   4.298657
    14  H    5.355082   6.467726   6.581183   5.629097   4.300143
    15  H    5.720612   6.597798   6.375011   5.181230   4.000914
    16  H    1.092703   2.180559   3.434232   3.938469   3.419190
    17  H    2.160737   1.093315   2.156945   3.420622   3.851863
    18  H    3.420681   2.156952   1.093298   2.160785   3.375840
    19  H    3.938469   3.434248   2.180684   1.092704   2.164284
                   11         12         13         14         15
    11  C    0.000000
    12  O    1.205588   0.000000
    13  H    3.226027   3.664381   0.000000
    14  H    3.229184   3.669903   1.793846   0.000000
    15  H    2.568867   2.479944   1.797215   1.797411   0.000000
    16  H    4.499123   5.674477   5.639132   5.634622   6.261924
    17  H    5.323278   6.265140   7.445724   7.444029   7.662677
    18  H    4.754090   5.286202   7.616065   7.617601   7.321993
    19  H    2.925874   3.028657   6.084299   6.088289   5.367756
                   16         17         18         19
    16  H    0.000000
    17  H    2.510695   0.000000
    18  H    4.328500   2.471013   0.000000
    19  H    5.031141   4.328590   2.510973   0.000000
 Symmetry turned off by external request.
 Stoichiometry    C9H7NO2
 Framework group  C1[X(C9H7NO2)]
 Deg. of freedom    51
 Full point group                 C1      NOp   1
 Rotational constants (GHZ):           1.7407937           0.8646341           0.5798472
 Leave Link  202 at Wed Feb 28 21:01:08 2024, MaxMem=  2147483648 cpu:               2.8 elap:               0.1
 (Enter /software/gaussian-16RevA.03-el7-x86_64/g16/l301.exe)
 Standard basis: def2SVPP (5D, 7F)
 Ernie: Thresh=  0.10000D-02 Tol=  0.10000D-05 Strict=F.
   182 basis functions,   328 primitive gaussians,   194 cartesian basis functions
    42 alpha electrons       42 beta electrons
       nuclear repulsion energy       656.4290756298 Hartrees.
 IExCor= 4639 DFT=T Ex+Corr=wB97XD ExCW=0 ScaHFX=  1.000000
 ScaDFX=  1.000000  1.000000  1.000000  1.000000 ScalE2=  1.000000  1.000000
 IRadAn=      5 IRanWt=     -1 IRanGd=            0 ICorTp=0 IEmpDi=121
 HFx  wShort=  0.000000 wLong=  0.200000 cFull=  0.222036 cShort=  0.000000 cLong=  0.777964
 DFx  wShort=  0.000000 wLong=  0.200000 cFull=  0.000000 cShort=  0.000000 cLong=  1.000000
 NAtoms=   19 NActive=   19 NUniq=   19 SFac= 1.00D+00 NAtFMM=   60 NAOKFM=F Big=F
 Integral buffers will be    131072 words long.
 Raffenetti 2 integral format.
 Two-electron integral symmetry is turned off.
 R6Disp:  Grimme-D2 Dispersion energy=       -0.0100150440 Hartrees.
 Nuclear repulsion after empirical dispersion term =      656.4190605858 Hartrees.
 Force inversion solution in PCM.
 ------------------------------------------------------------------------------
 Polarizable Continuum Model (PCM)
 =================================
 Model                : PCM.
 Atomic radii         : UFF (Universal Force Field).
 Polarization charges : Total charges.
 Charge compensation  : None.
 Solution method      : Matrix inversion.
 Cavity type          : Scaled VdW (van der Waals Surface) (Alpha=1.100).
 Cavity algorithm     : GePol (No added spheres)
                        Default sphere list used, NSphG=   19.
                        Lebedev-Laikov grids with approx.  5.0 points / Ang**2.
                        Smoothing algorithm: York/Karplus (Gamma=1.0000).
                        Polarization charges: spherical gaussians, with
                                              point-specific exponents (IZeta= 3).
                        Self-potential: point-specific (ISelfS= 7).
                        Self-field    : sphere-specific E.n sum rule (ISelfD= 2).
 1st derivatives      : Analytical E(r).r(x)/FMM algorithm (CHGder, D1EAlg=3).
                        Cavity 1st derivative terms included.
 2nd derivatives      : Analytical E(r).r(xy)/FMM algorithm (CHGder, D2EAlg=3).
                        Cavity 2nd derivative terms included.
 Solvent              : TetraHydroFuran, Eps=   7.425700 Eps(inf)=   1.974025
 ------------------------------------------------------------------------------
 Spheres list:
 ISph  on   Nord     Re0    Alpha      Xe            Ye            Ze
    1   C      1    1.9255  1.100     -3.187949      0.255365      0.217991
    2   N      2    1.8300  1.100     -1.750773      0.146858      0.122074
    3   C      3    1.9255  1.100     -1.093523     -1.025915     -0.246325
    4   O      4    1.7500  1.100     -1.637663     -2.066058     -0.521997
    5   C      5    1.9255  1.100      0.365527     -0.702112     -0.219080
    6   C      6    1.9255  1.100      1.467172     -1.494980     -0.497679
    7   C      7    1.9255  1.100      2.731037     -0.901496     -0.383865
    8   C      8    1.9255  1.100      2.868682      0.437926     -0.003885
    9   C      9    1.9255  1.100      1.747055      1.229478      0.275288
   10   C     10    1.9255  1.100      0.502591      0.631261      0.159253
   11   C     11    1.9255  1.100     -0.864475      1.193176      0.383761
   12   O     12    1.7500  1.100     -1.177896      2.307700      0.719985
   13   H     13    1.4430  1.100     -3.656653      0.049273     -0.757501
   14   H     14    1.4430  1.100     -3.579503     -0.456719      0.961772
   15   H     15    1.4430  1.100     -3.427623      1.281566      0.530513
   16   H     16    1.4430  1.100      1.352491     -2.540507     -0.793856
   17   H     17    1.4430  1.100      3.625709     -1.493333     -0.595121
   18   H     18    1.4430  1.100      3.868785      0.872327      0.076052
   19   H     19    1.4430  1.100      1.847010      2.276189      0.572622
 ------------------------------------------------------------------------------
 GePol: Number of generator spheres                  =      19
 GePol: Total number of spheres                      =      19
 GePol: Number of exposed spheres                    =      19 (100.00%)
 GePol: Number of points                             =    1661
 GePol: Average weight of points                     =       0.13
 GePol: Minimum weight of points                     =   0.85D-09
 GePol: Maximum weight of points                     =    0.20577
 GePol: Number of points with low weight             =      99
 GePol: Fraction of low-weight points (<1% of avg)   =       5.96%
 GePol: Cavity surface area                          =    216.079 Ang**2
 GePol: Cavity volume                                =    219.188 Ang**3
 Leave Link  301 at Wed Feb 28 21:01:08 2024, MaxMem=  2147483648 cpu:               2.1 elap:               0.1
 (Enter /software/gaussian-16RevA.03-el7-x86_64/g16/l302.exe)
 NPDir=0 NMtPBC=     1 NCelOv=     1 NCel=       1 NClECP=     1 NCelD=      1
         NCelK=      1 NCelE2=     1 NClLst=     1 CellRange=     0.0.
 One-electron integrals computed using PRISM.
   1 Symmetry operations used in ECPInt.
 ECPInt:  NShTT=    3741 NPrTT=   15055 LenC2=    3665 LenP2D=   11025.
 LDataN:  DoStor=T MaxTD1= 4 Len=   56
 NBasis=   182 RedAO= T EigKep=  2.79D-04  NBF=   182
 NBsUse=   182 1.00D-06 EigRej= -1.00D+00 NBFU=   182
 Precomputing XC quadrature grid using
 IXCGrd= 4 IRadAn=           5 IRanWt=          -1 IRanGd=           0 AccXCQ= 0.00D+00.
 Generated NRdTot=       0 NPtTot=           0 NUsed=           0 NTot=          32
 NSgBfM=   193   193   193   193   193 MxSgAt=    19 MxSgA2=    19.
 Leave Link  302 at Wed Feb 28 21:01:08 2024, MaxMem=  2147483648 cpu:               5.8 elap:               0.2
 (Enter /software/gaussian-16RevA.03-el7-x86_64/g16/l303.exe)
 DipDrv:  MaxL=1.
 Leave Link  303 at Wed Feb 28 21:01:09 2024, MaxMem=  2147483648 cpu:               3.0 elap:               0.1
 (Enter /software/gaussian-16RevA.03-el7-x86_64/g16/l401.exe)
 Initial guess from the checkpoint file:  "NMPHTH-cavity-in-THF-wB97XD.chk"
 B after Tr=     0.000000    0.000000    0.000000
         Rot=    1.000000    0.000000    0.000000    0.000000 Ang=   0.00 deg.
 Guess basis will be translated and rotated to current coordinates.
 JPrj=2 DoOrth=T DoCkMO=T.
 Leave Link  401 at Wed Feb 28 21:01:09 2024, MaxMem=  2147483648 cpu:               6.5 elap:               0.3
 (Enter /software/gaussian-16RevA.03-el7-x86_64/g16/l502.exe)
 Two-electron integral symmetry not used.
 Closed shell SCF:
 Using DIIS extrapolation, IDIIS=  1040.
 NGot=  2147483648 LenX=  2147401213 LenY=  2147363136
 Requested convergence on RMS density matrix=1.00D-08 within  32 cycles.
 Requested convergence on MAX density matrix=1.00D-06.
 Requested convergence on             energy=1.00D-06.
 No special actions if energy rises.
 Fock matrices will be formed incrementally for  20 cycles.

 Cycle   1  Pass 1  IDiag  1:
 FoFJK:  IHMeth= 1 ICntrl=       0 DoSepK=T KAlg= 0 I1Cent=           0 FoldK=F
 IRaf=         1 NMat=       1 IRICut=       1 DoRegI=T DoRafI=F ISym2E= 0 IDoP0=0 IntGTp=1.
 FoFCou: FMM=F IPFlag=           0 FMFlag=      100000 FMFlg1=           0
         NFxFlg=           0 DoJE=T BraDBF=F KetDBF=F FulRan=T
         wScrn=  0.000000 ICntrl=       500 IOpCl=  0 I1Cent=           0 NGrid=           0
         NMat0=    1 NMatS0=      1 NMatT0=    0 NMatD0=    1 NMtDS0=    0 NMtDT0=    0
 Symmetry not used in FoFCou.
 Inv3:  Mode=1 IEnd=     8276763.
 Iteration    1 A*A^-1 deviation from unit magnitude is 3.11D-15 for    237.
 Iteration    1 A*A^-1 deviation from orthogonality  is 1.55D-15 for   1480      8.
 Iteration    1 A^-1*A deviation from unit magnitude is 3.33D-15 for    237.
 Iteration    1 A^-1*A deviation from orthogonality  is 1.53D-15 for    286    237.
 E= -551.820902906650    
 DIIS: error= 1.41D-08 at cycle   1 NSaved=   1.
 NSaved= 1 IEnMin= 1 EnMin= -551.820902906650     IErMin= 1 ErrMin= 1.41D-08
 ErrMax= 1.41D-08  0.00D+00 EMaxC= 1.00D-01 BMatC= 1.76D-14 BMatP= 1.76D-14
 IDIUse=1 WtCom= 1.00D+00 WtEn= 0.00D+00
 Coeff-Com:  0.100D+01
 Coeff:      0.100D+01
 Gap=     0.328 Goal=   None    Shift=    0.000
 RMSDP=2.17D-09 MaxDP=4.87D-08              OVMax= 1.95D-07

 Error on total polarization charges =  0.00673
 SCF Done:  E(RwB97XD) =  -551.820902907     A.U. after    1 cycles
            NFock=  1  Conv=0.22D-08     -V/T= 2.0095
 KE= 5.466540067784D+02 PE=-2.597179098519D+03 EE= 8.422851282481D+02
 Leave Link  502 at Wed Feb 28 21:01:11 2024, MaxMem=  2147483648 cpu:              55.8 elap:               2.3
 (Enter /software/gaussian-16RevA.03-el7-x86_64/g16/l508.exe)
 QCSCF skips out because SCF is already converged.
 Leave Link  508 at Wed Feb 28 21:01:11 2024, MaxMem=  2147483648 cpu:               0.8 elap:               0.1
 (Enter /software/gaussian-16RevA.03-el7-x86_64/g16/l801.exe)
 DoSCS=F DFT=T ScalE2(SS,OS)=  1.000000  1.000000
 Range of M.O.s used for correlation:     1   182
 NBasis=   182 NAE=    42 NBE=    42 NFC=     0 NFV=     0
 NROrb=    182 NOA=    42 NOB=    42 NVA=   140 NVB=   140

 **** Warning!!: The largest alpha MO coefficient is  0.16815565D+02

 Leave Link  801 at Wed Feb 28 21:01:11 2024, MaxMem=  2147483648 cpu:               0.8 elap:               0.1
 (Enter /software/gaussian-16RevA.03-el7-x86_64/g16/l1101.exe)
 Using compressed storage, NAtomX=    19.
 Will process     20 centers per pass.
   1 Symmetry operations used in ECPInt.
 ECPInt:  NShTT=    3741 NPrTT=   15055 LenC2=    3665 LenP2D=   11025.
 LDataN:  DoStor=T MaxTD1= 5 Len=  102
 R6Disp: Adding Grimme-D2 dispersion energy 1st derivatives to the gradient.
 Leave Link 1101 at Wed Feb 28 21:01:12 2024, MaxMem=  2147483648 cpu:               6.6 elap:               0.3
 (Enter /software/gaussian-16RevA.03-el7-x86_64/g16/l1102.exe)
 Symmetrizing basis deriv contribution to polar:
 IMax=3 JMax=2 DiffMx= 0.00D+00
 Leave Link 1102 at Wed Feb 28 21:01:12 2024, MaxMem=  2147483648 cpu:               0.9 elap:               0.1
 (Enter /software/gaussian-16RevA.03-el7-x86_64/g16/l1110.exe)
 Forming Gx(P) for the SCF density, NAtomX=    19.
 Integral derivatives from FoFJK, PRISM(SPDF).
 Do as many integral derivatives as possible in FoFJK.
 G2DrvN: MDV=    2147482144.
 G2DrvN: will do    20 centers at a time, making    1 passes.
 Calling FoFCou, ICntrl=  3107 FMM=F I1Cent=   0 AccDes= 0.00D+00.
 FoFJK:  IHMeth= 1 ICntrl=    3107 DoSepK=T KAlg= 0 I1Cent=           0 FoldK=F
 IRaf=         1 NMat=       1 IRICut=       1 DoRegI=T DoRafI=F ISym2E= 0 IDoP0=0 IntGTp=1.
 FoFCou: FMM=F IPFlag=           0 FMFlag=      100000 FMFlg1=           0
         NFxFlg=           0 DoJE=F BraDBF=F KetDBF=F FulRan=T
         wScrn=  0.000000 ICntrl=      3507 IOpCl=  0 I1Cent=           0 NGrid=           0
         NMat0=    1 NMatS0=      1 NMatT0=    0 NMatD0=    1 NMtDS0=    0 NMtDT0=    0
 Symmetry not used in FoFCou.
 NEqPCM:  Using equilibrium solvation (IEInf=0, Eps=   7.4257, EpsInf=   1.9740)
 G2PCM: DoFxE=T DoFxN=T DoGrad=T DoDP/DQ/DG/TGxP=FFFF NFrqRd=   0 IEInf=0 SqF1=F DoCFld=F IF1Alg=4.
 GePol: Maximum number of non-zero 1st derivatives   =     213
 End of G2Drv F.D. properties file   721 does not exist.
 End of G2Drv F.D. properties file   722 does not exist.
 End of G2Drv F.D. properties file   788 does not exist.
 Leave Link 1110 at Wed Feb 28 21:01:21 2024, MaxMem=  2147483648 cpu:             273.1 elap:               9.8
 (Enter /software/gaussian-16RevA.03-el7-x86_64/g16/l1002.exe)
 Minotr:  Closed shell wavefunction.
          IDoAtm=1111111111111111111
 NEqPCM:  Using equilibrium solvation (IEInf=0, Eps=   7.4257, EpsInf=   1.9740)
          Direct CPHF calculation.
          Differentiating once with respect to electric field.
                with respect to dipole field.
          Differentiating once with respect to nuclear coordinates.
          Requested convergence is 1.0D-08 RMS, and 1.0D-07 maximum.
          Secondary convergence is 1.0D-12 RMS, and 1.0D-12 maximum.
          NewPWx=T KeepS1=F KeepF1=F KeepIn=T MapXYZ=F SortEE=F KeepMc=T.
         5698 words used for storage of precomputed grid.
 Keep R1 ints in memory in canonical form, NReq=305852463.
 FoFCou: FMM=F IPFlag=           0 FMFlag=           0 FMFlg1=           0
         NFxFlg=           0 DoJE=F BraDBF=F KetDBF=F FulRan=T
         wScrn=  0.000000 ICntrl=       600 IOpCl=  0 I1Cent=           0 NGrid=           0
         NMat0=    1 NMatS0=  16653 NMatT0=    0 NMatD0=    1 NMtDS0=    0 NMtDT0=    0
 Symmetry not used in FoFCou.
 Two-electron integral symmetry not used.
          MDV=    2147483648 using IRadAn=       1.
          Solving linear equations simultaneously, MaxMat=       0.
          There are    60 degrees of freedom in the 1st order CPHF.  IDoFFX=6 NUNeed=     3.
     57 vectors produced by pass  0 Test12= 9.80D-15 1.67D-09 XBig12= 6.93D+01 5.06D+00.
 AX will form    57 AO Fock derivatives at one time.
     57 vectors produced by pass  1 Test12= 9.80D-15 1.67D-09 XBig12= 8.15D+00 4.07D-01.
     57 vectors produced by pass  2 Test12= 9.80D-15 1.67D-09 XBig12= 2.07D-01 1.17D-01.
     57 vectors produced by pass  3 Test12= 9.80D-15 1.67D-09 XBig12= 2.80D-03 1.11D-02.
     57 vectors produced by pass  4 Test12= 9.80D-15 1.67D-09 XBig12= 1.97D-05 7.35D-04.
     57 vectors produced by pass  5 Test12= 9.80D-15 1.67D-09 XBig12= 9.89D-08 4.39D-05.
     51 vectors produced by pass  6 Test12= 9.80D-15 1.67D-09 XBig12= 4.04D-10 2.82D-06.
     15 vectors produced by pass  7 Test12= 9.80D-15 1.67D-09 XBig12= 1.55D-12 2.02D-07.
      3 vectors produced by pass  8 Test12= 9.80D-15 1.67D-09 XBig12= 7.29D-15 1.51D-08.
 InvSVY:  IOpt=1 It=  1 EMax= 5.33D-15
 Solved reduced A of dimension   411 with    60 vectors.
 FullF1:  Do perturbations      1 to       3.
 Isotropic polarizability for W=    0.000000      124.66 Bohr**3.
 End of Minotr F.D. properties file   721 does not exist.
 End of Minotr F.D. properties file   722 does not exist.
 End of Minotr F.D. properties file   788 does not exist.
 Leave Link 1002 at Wed Feb 28 21:01:35 2024, MaxMem=  2147483648 cpu:             379.5 elap:              13.6
 (Enter /software/gaussian-16RevA.03-el7-x86_64/g16/l601.exe)
 Copying SCF densities to generalized density rwf, IOpCl= 0 IROHF=0.

 **********************************************************************

            Population analysis using the SCF density.

 **********************************************************************

 Alpha  occ. eigenvalues --  -19.26322 -19.26259 -14.50101 -10.43226 -10.43075
 Alpha  occ. eigenvalues --  -10.33234 -10.33024 -10.32982 -10.32868 -10.32859
 Alpha  occ. eigenvalues --  -10.32520 -10.32480  -1.17667  -1.15609  -1.06478
 Alpha  occ. eigenvalues --   -0.98199  -0.89918  -0.86972  -0.81496  -0.76722
 Alpha  occ. eigenvalues --   -0.72474  -0.71291  -0.66472  -0.61351  -0.59280
 Alpha  occ. eigenvalues --   -0.59018  -0.57778  -0.54722  -0.54652  -0.53701
 Alpha  occ. eigenvalues --   -0.52835  -0.51277  -0.49982  -0.49283  -0.46985
 Alpha  occ. eigenvalues --   -0.46955  -0.46038  -0.38628  -0.37204  -0.36335
 Alpha  occ. eigenvalues --   -0.35794  -0.34858
 Alpha virt. eigenvalues --   -0.02095   0.02366   0.09981   0.14703   0.14770
 Alpha virt. eigenvalues --    0.16177   0.18405   0.20766   0.21356   0.22697
 Alpha virt. eigenvalues --    0.22737   0.23739   0.24536   0.27299   0.28868
 Alpha virt. eigenvalues --    0.30847   0.31805   0.35175   0.36301   0.37367
 Alpha virt. eigenvalues --    0.39380   0.40754   0.41976   0.44482   0.46210
 Alpha virt. eigenvalues --    0.48703   0.49052   0.50891   0.53599   0.53656
 Alpha virt. eigenvalues --    0.54024   0.55045   0.55381   0.57504   0.59176
 Alpha virt. eigenvalues --    0.60050   0.64770   0.66637   0.67707   0.70399
 Alpha virt. eigenvalues --    0.71724   0.72051   0.72681   0.73480   0.74429
 Alpha virt. eigenvalues --    0.75313   0.75624   0.76462   0.77393   0.77521
 Alpha virt. eigenvalues --    0.77952   0.79865   0.81619   0.82250   0.82977
 Alpha virt. eigenvalues --    0.84237   0.85637   0.86925   0.90803   0.93401
 Alpha virt. eigenvalues --    0.97138   0.97613   1.00873   1.05934   1.10564
 Alpha virt. eigenvalues --    1.11687   1.13474   1.16259   1.17660   1.21927
 Alpha virt. eigenvalues --    1.22293   1.25513   1.29920   1.33408   1.33802
 Alpha virt. eigenvalues --    1.36338   1.40662   1.42265   1.48857   1.51942
 Alpha virt. eigenvalues --    1.51988   1.53561   1.54323   1.54661   1.54836
 Alpha virt. eigenvalues --    1.56651   1.68530   1.70424   1.75645   1.82441
 Alpha virt. eigenvalues --    1.83616   1.86403   1.87384   1.90851   1.93048
 Alpha virt. eigenvalues --    1.97762   1.99499   2.00556   2.02941   2.07287
 Alpha virt. eigenvalues --    2.08689   2.09330   2.15341   2.15579   2.17841
 Alpha virt. eigenvalues --    2.21763   2.22615   2.25118   2.30249   2.32724
 Alpha virt. eigenvalues --    2.34892   2.35158   2.37527   2.43424   2.49503
 Alpha virt. eigenvalues --    2.52144   2.55764   2.58896   2.59819   2.66054
 Alpha virt. eigenvalues --    2.70959   2.73733   2.76136   2.77596   2.78308
 Alpha virt. eigenvalues --    2.79062   2.84509   2.84887   2.88666   2.89648
 Alpha virt. eigenvalues --    2.95934   3.21092   3.23681   3.26738   3.28105
 Alpha virt. eigenvalues --    3.40655   3.47889   3.68361   3.71676   3.75647
          Condensed to atoms (all electrons):
               1          2          3          4          5          6
     1  C    4.789601   0.255394  -0.021940   0.009387   0.011484  -0.000164
     2  N    0.255394   7.024757   0.308269  -0.097793  -0.138577   0.007546
     3  C   -0.021940   0.308269   4.605919   0.796758   0.183498  -0.072037
     4  O    0.009387  -0.097793   0.796758   7.597037  -0.097320   0.008104
     5  C    0.011484  -0.138577   0.183498  -0.097320   5.578818   0.319934
     6  C   -0.000164   0.007546  -0.072037   0.008104   0.319934   5.235127
     7  C    0.000004  -0.000057   0.013912   0.000440   0.097720   0.263521
     8  C    0.000005  -0.000028  -0.001266  -0.000015  -0.142640   0.089805
     9  C   -0.000081   0.007134   0.015359  -0.000047   0.019987  -0.116671
    10  C    0.010126  -0.150850  -0.030182   0.002148   0.271979   0.019393
    11  C   -0.028968   0.323970  -0.079430  -0.000393  -0.042060   0.015421
    12  O   -0.004948  -0.093006  -0.000471  -0.000013   0.002367  -0.000030
    13  H    0.396929  -0.026203  -0.002991   0.001940   0.000839   0.000006
    14  H    0.396759  -0.026198  -0.003004   0.002029   0.000869   0.000006
    15  H    0.381946  -0.026508   0.004353   0.000185  -0.000601   0.000012
    16  H   -0.000019   0.000462  -0.008067   0.003933  -0.067883   0.441633
    17  H   -0.000000   0.000001  -0.000216  -0.000001   0.011818  -0.063815
    18  H   -0.000000   0.000001   0.000026  -0.000000  -0.001361   0.010661
    19  H   -0.000006   0.000443  -0.000265   0.000001   0.012280  -0.001509
               7          8          9         10         11         12
     1  C    0.000004   0.000005  -0.000081   0.010126  -0.028968  -0.004948
     2  N   -0.000057  -0.000028   0.007134  -0.150850   0.323970  -0.093006
     3  C    0.013912  -0.001266   0.015359  -0.030182  -0.079430  -0.000471
     4  O    0.000440  -0.000015  -0.000047   0.002148  -0.000393  -0.000013
     5  C    0.097720  -0.142640   0.019987   0.271979  -0.042060   0.002367
     6  C    0.263521   0.089805  -0.116671   0.019393   0.015421  -0.000030
     7  C    5.152813   0.286334   0.090116  -0.142951  -0.001251  -0.000016
     8  C    0.286334   5.152443   0.264014   0.097133   0.013791   0.000467
     9  C    0.090116   0.264014   5.233022   0.321091  -0.071517   0.008049
    10  C   -0.142951   0.097133   0.321091   5.625194   0.154126  -0.101689
    11  C   -0.001251   0.013791  -0.071517   0.154126   4.629043   0.797554
    12  O   -0.000016   0.000467   0.008049  -0.101689   0.797554   7.590985
    13  H   -0.000001   0.000000   0.000006  -0.000520   0.001853   0.000105
    14  H   -0.000001   0.000000   0.000006  -0.000520   0.001903   0.000106
    15  H    0.000001  -0.000002  -0.000017   0.004192  -0.003621   0.017483
    16  H   -0.061057   0.010196  -0.001567   0.012239  -0.000200   0.000001
    17  H    0.436787  -0.060907   0.010627  -0.001348   0.000028  -0.000000
    18  H   -0.060947   0.436942  -0.063957   0.011868  -0.000214  -0.000001
    19  H    0.010161  -0.060718   0.440904  -0.067894  -0.007425   0.003964
              13         14         15         16         17         18
     1  C    0.396929   0.396759   0.381946  -0.000019  -0.000000  -0.000000
     2  N   -0.026203  -0.026198  -0.026508   0.000462   0.000001   0.000001
     3  C   -0.002991  -0.003004   0.004353  -0.008067  -0.000216   0.000026
     4  O    0.001940   0.002029   0.000185   0.003933  -0.000001  -0.000000
     5  C    0.000839   0.000869  -0.000601  -0.067883   0.011818  -0.001361
     6  C    0.000006   0.000006   0.000012   0.441633  -0.063815   0.010661
     7  C   -0.000001  -0.000001   0.000001  -0.061057   0.436787  -0.060947
     8  C    0.000000   0.000000  -0.000002   0.010196  -0.060907   0.436942
     9  C    0.000006   0.000006  -0.000017  -0.001567   0.010627  -0.063957
    10  C   -0.000520  -0.000520   0.004192   0.012239  -0.001348   0.011868
    11  C    0.001853   0.001903  -0.003621  -0.000200   0.000028  -0.000214
    12  O    0.000105   0.000106   0.017483   0.000001  -0.000000  -0.000001
    13  H    0.516431  -0.023025  -0.017461  -0.000001  -0.000000   0.000000
    14  H   -0.023025   0.516381  -0.017381  -0.000001  -0.000000   0.000000
    15  H   -0.017461  -0.017381   0.499020  -0.000001   0.000000  -0.000000
    16  H   -0.000001  -0.000001  -0.000001   0.557241  -0.007666  -0.000113
    17  H   -0.000000  -0.000000   0.000000  -0.007666   0.555224  -0.008832
    18  H    0.000000   0.000000  -0.000000  -0.000113  -0.008832   0.555168
    19  H   -0.000000  -0.000000  -0.000011   0.000018  -0.000112  -0.007691
              19
     1  C   -0.000006
     2  N    0.000443
     3  C   -0.000265
     4  O    0.000001
     5  C    0.012280
     6  C   -0.001509
     7  C    0.010161
     8  C   -0.060718
     9  C    0.440904
    10  C   -0.067894
    11  C   -0.007425
    12  O    0.003964
    13  H   -0.000000
    14  H   -0.000000
    15  H   -0.000011
    16  H    0.000018
    17  H   -0.000112
    18  H   -0.007691
    19  H    0.556601
 Mulliken charges:
               1
     1  C   -0.195509
     2  N   -0.368756
     3  C    0.291778
     4  O   -0.226380
     5  C   -0.021152
     6  C   -0.156941
     7  C   -0.085527
     8  C   -0.085554
     9  C   -0.156459
    10  C   -0.033533
    11  C    0.297391
    12  O   -0.220907
    13  H    0.152093
    14  H    0.152071
    15  H    0.158412
    16  H    0.120852
    17  H    0.128413
    18  H    0.128451
    19  H    0.121259
 Sum of Mulliken charges =  -0.00000
 Mulliken charges with hydrogens summed into heavy atoms:
               1
     1  C    0.267067
     2  N   -0.368756
     3  C    0.291778
     4  O   -0.226380
     5  C   -0.021152
     6  C   -0.036090
     7  C    0.042886
     8  C    0.042896
     9  C   -0.035199
    10  C   -0.033533
    11  C    0.297391
    12  O   -0.220907
 APT charges:
               1
     1  C    0.351075
     2  N   -1.188057
     3  C    1.525136
     4  O   -0.989365
     5  C   -0.231001
     6  C   -0.018273
     7  C   -0.024786
     8  C   -0.025337
     9  C   -0.015631
    10  C   -0.226917
    11  C    1.536832
    12  O   -1.002933
    13  H   -0.008088
    14  H   -0.007505
    15  H    0.061958
    16  H    0.076572
    17  H    0.054449
    18  H    0.054233
    19  H    0.077639
 Sum of APT charges =  -0.00000
 APT charges with hydrogens summed into heavy atoms:
               1
     1  C    0.397440
     2  N   -1.188057
     3  C    1.525136
     4  O   -0.989365
     5  C   -0.231001
     6  C    0.058299
     7  C    0.029663
     8  C    0.028896
     9  C    0.062008
    10  C   -0.226917
    11  C    1.536832
    12  O   -1.002933
 Electronic spatial extent (au):  <R**2>=           1872.4200
 Charge=             -0.0000 electrons
 Dipole moment (field-independent basis, Debye):
    X=              2.8333    Y=             -0.2057    Z=             -0.1884  Tot=              2.8470
 Quadrupole moment (field-independent basis, Debye-Ang):
   XX=            -54.2436   YY=            -77.5878   ZZ=            -69.4654
   XY=             -2.2647   XZ=             -1.3129   YZ=             -2.4327
 Traceless Quadrupole moment (field-independent basis, Debye-Ang):
   XX=             12.8553   YY=            -10.4889   ZZ=             -2.3665
   XY=             -2.2647   XZ=             -1.3129   YZ=             -2.4327
 Octapole moment (field-independent basis, Debye-Ang**2):
  XXX=             15.1031  YYY=             -8.6432  ZZZ=              0.2949  XYY=             34.7534
  XXY=              6.7658  XXZ=              0.5833  XZZ=             -4.0807  YZZ=             -1.8334
  YYZ=             -4.0504  XYZ=             11.8879
 Hexadecapole moment (field-independent basis, Debye-Ang**3):
 XXXX=          -1372.0721 YYYY=           -760.4501 ZZZZ=           -132.5847 XXXY=              8.8349
 XXXZ=             25.5937 YYYX=             24.4476 YYYZ=           -107.8593 ZZZX=             46.7308
 ZZZY=            -94.1863 XXYY=           -388.9497 XXZZ=           -295.9253 YYZZ=           -143.9377
 XXYZ=            -28.3675 YYXZ=             11.1872 ZZXY=             11.6896
 N-N= 6.564190605858D+02 E-N=-2.597179099530D+03  KE= 5.466540067784D+02
  Exact polarizability: 165.071   0.848 143.699  -4.592  24.721  65.217
 Approx polarizability: 135.345   3.306 144.701  -2.447  24.221  67.339
 No NMR shielding tensors so no spin-rotation constants.
 Leave Link  601 at Wed Feb 28 21:01:35 2024, MaxMem=  2147483648 cpu:               3.8 elap:               0.2
 (Enter /software/gaussian-16RevA.03-el7-x86_64/g16/l701.exe)
 ... and contract with generalized density number  0.
 Compute integral second derivatives.
 R6Disp: Adding Grimme-D2 dispersion energy 2nd derivatives to the Hessian.
   1 Symmetry operations used in ECPInt.
 ECPInt:  NShTT=    3741 NPrTT=   15055 LenC2=    3665 LenP2D=   11025.
 LDataN:  DoStor=T MaxTD1= 6 Len=  172
 D2PCM: PCM CHGder 2nd derivatives, FixD1E=F FixD2E=F DoIter=F DoCFld=F I1PDM=0
 GePol: Maximum number of non-zero 2nd derivatives   =     213
 Leave Link  701 at Wed Feb 28 21:01:38 2024, MaxMem=  2147483648 cpu:              64.1 elap:               2.3
 (Enter /software/gaussian-16RevA.03-el7-x86_64/g16/l702.exe)
 L702 exits ... SP integral derivatives will be done elsewhere.
 Leave Link  702 at Wed Feb 28 21:01:38 2024, MaxMem=  2147483648 cpu:               0.7 elap:               0.0
 (Enter /software/gaussian-16RevA.03-el7-x86_64/g16/l703.exe)
 Integral derivatives from FoFJK, PRISM(SPDF).
 Compute integral second derivatives, UseDBF=F ICtDFT=           0.
 Calling FoFJK, ICntrl=    100127 FMM=F ISym2X=0 I1Cent= 0 IOpClX= 0 NMat=1 NMatS=1 NMatT=0.
 FoFJK:  IHMeth= 1 ICntrl=  100127 DoSepK=T KAlg= 0 I1Cent=           0 FoldK=F
 IRaf=         1 NMat=       1 IRICut=       1 DoRegI=T DoRafI=F ISym2E= 0 IDoP0=0 IntGTp=1.
 FoFCou: FMM=F IPFlag=           0 FMFlag=      100000 FMFlg1=         800
         NFxFlg=           0 DoJE=F BraDBF=F KetDBF=F FulRan=T
         wScrn=  0.000000 ICntrl=    100527 IOpCl=  0 I1Cent=           0 NGrid=           0
         NMat0=    1 NMatS0=      1 NMatT0=    0 NMatD0=    1 NMtDS0=    0 NMtDT0=    0
 Symmetry not used in FoFCou.
 Leave Link  703 at Wed Feb 28 21:01:56 2024, MaxMem=  2147483648 cpu:             501.5 elap:              17.9
 (Enter /software/gaussian-16RevA.03-el7-x86_64/g16/l716.exe)
 Dipole        = 1.11471710D+00-8.09411913D-02-7.41295105D-02
 Polarizability= 1.65070643D+02 8.48212796D-01 1.43698517D+02
                -4.59201215D+00 2.47214178D+01 6.52170390D+01
 Full mass-weighted force constant matrix:
 Low frequencies ---   -8.4792    0.0008    0.0009    0.0009    3.3313    7.9668
 Low frequencies ---   76.2509  111.2117  138.6514
 Diagonal vibrational polarizability:
       19.0818878      20.5145403      29.9875348
 Harmonic frequencies (cm**-1), IR intensities (KM/Mole), Raman scattering
 activities (A**4/AMU), depolarization ratios for plane and unpolarized
 incident light, reduced masses (AMU), force constants (mDyne/A),
 and normal coordinates:
                      1                      2                      3
                      A                      A                      A
 Frequencies --     76.2436               111.2116               138.6511
 Red. masses --      1.0246                 3.5983                 4.9862
 Frc consts  --      0.0035                 0.0262                 0.0565
 IR Inten    --      0.0013                 8.9615                 0.0001
  Atom  AN      X      Y      Z        X      Y      Z        X      Y      Z
     1   6    -0.00   0.01  -0.02     0.01  -0.09   0.32     0.00  -0.00   0.00
     2   7     0.00  -0.00   0.01     0.00  -0.00   0.01     0.00  -0.00   0.00
     3   6     0.00  -0.00   0.01    -0.00   0.03  -0.09    -0.00   0.01  -0.04
     4   8     0.00  -0.00   0.01    -0.01   0.03  -0.12    -0.01   0.06  -0.21
     5   6     0.00  -0.00   0.01    -0.01   0.03  -0.11     0.00  -0.02   0.09
     6   6     0.00  -0.00   0.01    -0.00   0.00  -0.00     0.01  -0.08   0.27
     7   6     0.00  -0.00   0.00     0.01  -0.04   0.13     0.01  -0.05   0.16
     8   6    -0.00   0.00  -0.01     0.01  -0.04   0.13    -0.01   0.05  -0.16
     9   6    -0.00   0.00  -0.01    -0.00   0.00  -0.00    -0.01   0.08  -0.27
    10   6    -0.00   0.00  -0.00    -0.01   0.03  -0.11    -0.00   0.02  -0.08
    11   6    -0.00   0.00  -0.00    -0.00   0.03  -0.09     0.00  -0.01   0.04
    12   8    -0.00   0.00  -0.01    -0.01   0.03  -0.12     0.01  -0.06   0.21
    13   1     0.03   0.57  -0.15    -0.19  -0.03   0.40     0.00  -0.06   0.01
    14   1    -0.05  -0.39  -0.43     0.23  -0.19   0.34     0.00   0.04   0.04
    15   1     0.02  -0.16   0.53     0.02  -0.14   0.47    -0.00   0.01  -0.05
    16   1     0.00  -0.01   0.02     0.00  -0.00   0.01     0.02  -0.13   0.46
    17   1     0.00  -0.00   0.01     0.01  -0.07   0.25     0.01  -0.09   0.30
    18   1    -0.00   0.01  -0.02     0.01  -0.07   0.25    -0.01   0.09  -0.31
    19   1    -0.00   0.01  -0.02     0.00  -0.00   0.01    -0.02   0.13  -0.46
                      4                      5                      6
                      A                      A                      A
 Frequencies --    165.7881               240.2902               249.1032
 Red. masses --     10.0328                 4.4913                 4.7542
 Frc consts  --      0.1625                 0.1528                 0.1738
 IR Inten    --      4.9707                 0.0375                 0.3674
  Atom  AN      X      Y      Z        X      Y      Z        X      Y      Z
     1   6    -0.00   0.01  -0.04     0.02   0.21   0.06    -0.01   0.03  -0.12
     2   7    -0.02   0.10  -0.36    -0.01  -0.04  -0.01     0.02  -0.11   0.37
     3   6    -0.00   0.03  -0.10    -0.07  -0.10  -0.02     0.00  -0.01   0.06
     4   8     0.02  -0.11   0.38    -0.18  -0.05  -0.01     0.00  -0.00   0.01
     5   6    -0.01   0.07  -0.26    -0.00  -0.14  -0.04    -0.01   0.06  -0.20
     6   6    -0.00   0.02  -0.07     0.13   0.00  -0.01    -0.01   0.03  -0.11
     7   6     0.01  -0.04   0.13     0.07   0.16   0.05     0.00  -0.03   0.11
     8   6     0.01  -0.04   0.13    -0.04   0.17   0.05     0.01  -0.03   0.11
     9   6    -0.00   0.02  -0.08    -0.13   0.03   0.01    -0.00   0.03  -0.11
    10   6    -0.01   0.08  -0.26    -0.03  -0.14  -0.04    -0.01   0.06  -0.20
    11   6    -0.00   0.03  -0.10     0.05  -0.11  -0.03     0.00  -0.01   0.05
    12   8     0.02  -0.11   0.38     0.17  -0.07  -0.03    -0.00  -0.00   0.01
    13   1    -0.20   0.04   0.05    -0.08   0.30   0.08     0.34  -0.01  -0.28
    14   1     0.20  -0.06   0.01    -0.09   0.30   0.09    -0.35   0.13  -0.21
    15   1     0.00  -0.02   0.08     0.25   0.26   0.06    -0.02   0.08  -0.29
    16   1    -0.00   0.01  -0.02     0.32  -0.01  -0.02    -0.01   0.03  -0.10
    17   1     0.01  -0.09   0.32     0.13   0.24   0.07     0.01  -0.09   0.30
    18   1     0.01  -0.09   0.32    -0.08   0.26   0.08     0.01  -0.09   0.30
    19   1    -0.00   0.01  -0.03    -0.32   0.04   0.02     0.00   0.03  -0.10
                      7                      8                      9
                      A                      A                      A
 Frequencies --    286.7114               361.6524               425.5818
 Red. masses --      3.7961                11.0914                 3.0385
 Frc consts  --      0.1839                 0.8547                 0.3243
 IR Inten    --      5.2753                26.4182                 0.9071
  Atom  AN      X      Y      Z        X      Y      Z        X      Y      Z
     1   6     0.02   0.30   0.09    -0.12  -0.05  -0.01     0.00   0.00  -0.00
     2   7    -0.02  -0.05  -0.01    -0.10   0.02   0.01     0.00  -0.02   0.06
     3   6     0.03  -0.04  -0.01     0.03   0.01   0.00    -0.00   0.01  -0.05
     4   8     0.21  -0.12  -0.05     0.43  -0.17  -0.07     0.00  -0.00   0.01
     5   6     0.00   0.04   0.01    -0.09   0.03   0.01    -0.01   0.04  -0.15
     6   6    -0.04   0.00   0.00    -0.18  -0.03  -0.00     0.01  -0.06   0.22
     7   6    -0.02  -0.04  -0.01    -0.23   0.02   0.02    -0.00   0.03  -0.10
     8   6    -0.00  -0.04  -0.01    -0.23   0.03   0.02    -0.00   0.03  -0.10
     9   6     0.02  -0.00  -0.00    -0.18   0.06   0.03     0.01  -0.06   0.22
    10   6    -0.00   0.04   0.01    -0.09  -0.02  -0.00    -0.01   0.04  -0.15
    11   6    -0.04  -0.03  -0.01     0.04  -0.00  -0.00    -0.00   0.01  -0.05
    12   8    -0.18  -0.07  -0.01     0.52   0.13   0.01     0.00  -0.00   0.01
    13   1    -0.13   0.45   0.13    -0.10  -0.06  -0.01     0.05  -0.01  -0.03
    14   1    -0.14   0.45   0.14    -0.10  -0.06  -0.01    -0.05   0.02  -0.01
    15   1     0.36   0.38   0.09    -0.20  -0.06  -0.01    -0.00   0.01  -0.03
    16   1    -0.09   0.01   0.01    -0.22  -0.03   0.00     0.03  -0.17   0.59
    17   1    -0.04  -0.06  -0.01    -0.20   0.06   0.03    -0.01   0.05  -0.18
    18   1     0.01  -0.06  -0.02    -0.21  -0.02   0.01    -0.01   0.05  -0.17
    19   1     0.07  -0.01  -0.01    -0.23   0.07   0.03     0.03  -0.17   0.59
                     10                     11                     12
                      A                      A                      A
 Frequencies --    477.9286               486.8245               541.4437
 Red. masses --      4.7188                 5.6647                 7.1900
 Frc consts  --      0.6350                 0.7910                 1.2419
 IR Inten    --      0.0006                20.2524                14.6363
  Atom  AN      X      Y      Z        X      Y      Z        X      Y      Z
     1   6    -0.00   0.00  -0.00     0.38  -0.02  -0.02    -0.00  -0.04  -0.01
     2   7    -0.00   0.00  -0.00     0.25  -0.02  -0.02    -0.01  -0.13  -0.04
     3   6     0.01  -0.04   0.15     0.10  -0.02  -0.01    -0.15  -0.10  -0.02
     4   8    -0.00   0.02  -0.07    -0.05   0.05   0.02    -0.14  -0.14  -0.03
     5   6     0.01  -0.07   0.25    -0.01  -0.01  -0.00    -0.13   0.16   0.05
     6   6     0.00  -0.02   0.05    -0.15  -0.10  -0.02    -0.22   0.20   0.07
     7   6    -0.01   0.07  -0.24    -0.23   0.02   0.01    -0.18   0.09   0.03
     8   6     0.01  -0.07   0.24    -0.23   0.02   0.02     0.19   0.06   0.01
     9   6    -0.00   0.02  -0.06    -0.13   0.12   0.04     0.26   0.16   0.03
    10   6    -0.01   0.07  -0.25    -0.00   0.01   0.00     0.17   0.14   0.03
    11   6    -0.01   0.05  -0.16     0.10   0.00  -0.01     0.13  -0.12  -0.04
    12   8     0.00  -0.02   0.07    -0.07  -0.04  -0.01     0.11  -0.16  -0.05
    13   1    -0.01  -0.00   0.00     0.37  -0.02  -0.02    -0.03  -0.02  -0.00
    14   1     0.01   0.00   0.00     0.37  -0.02  -0.03    -0.03  -0.02  -0.01
    15   1    -0.00  -0.00   0.01     0.39  -0.02  -0.02     0.06  -0.03  -0.01
    16   1     0.00  -0.02   0.07    -0.19  -0.09  -0.02    -0.27   0.20   0.07
    17   1    -0.02   0.16  -0.55    -0.17   0.10   0.03    -0.32  -0.10  -0.02
    18   1     0.02  -0.16   0.55    -0.19  -0.07  -0.01     0.29  -0.16  -0.06
    19   1    -0.00   0.02  -0.07    -0.17   0.12   0.04     0.30   0.16   0.03
                     13                     14                     15
                      A                      A                      A
 Frequencies --    621.2980               698.5620               719.2039
 Red. masses --     10.5821                 4.7437                 6.3436
 Frc consts  --      2.4067                 1.3639                 1.9333
 IR Inten    --      3.1021                 0.0024                 1.4167
  Atom  AN      X      Y      Z        X      Y      Z        X      Y      Z
     1   6     0.23  -0.02  -0.02     0.00  -0.00   0.00     0.00  -0.00  -0.00
     2   7     0.12  -0.01  -0.01    -0.00   0.00  -0.00    -0.02  -0.16  -0.05
     3   6    -0.11  -0.30  -0.08    -0.01   0.07  -0.25     0.13  -0.10  -0.04
     4   8    -0.09  -0.37  -0.10     0.00  -0.02   0.07    -0.14   0.02   0.01
     5   6    -0.15  -0.01   0.00    -0.01   0.04  -0.13     0.16   0.22   0.06
     6   6    -0.01   0.20   0.06     0.01  -0.05   0.19     0.09   0.11   0.03
     7   6     0.11   0.02   0.00    -0.01   0.06  -0.19     0.18  -0.18  -0.06
     8   6     0.11  -0.04  -0.02     0.01  -0.05   0.19    -0.21  -0.15  -0.03
     9   6    -0.05  -0.20  -0.05    -0.01   0.05  -0.19    -0.07   0.10   0.03
    10   6    -0.15   0.04   0.02     0.01  -0.04   0.12    -0.12   0.24   0.07
    11   6    -0.04   0.31   0.09     0.01  -0.07   0.26    -0.15  -0.08  -0.02
    12   8    -0.01   0.38   0.11    -0.00   0.02  -0.07     0.15  -0.01  -0.01
    13   1     0.21  -0.01  -0.01     0.02   0.01  -0.01    -0.13   0.14   0.03
    14   1     0.21  -0.01  -0.02    -0.02  -0.00  -0.01    -0.13   0.13   0.06
    15   1     0.19  -0.03  -0.02    -0.00   0.00  -0.01     0.31   0.07   0.01
    16   1     0.01   0.20   0.06     0.02  -0.10   0.35    -0.31   0.14   0.06
    17   1     0.01  -0.13  -0.04    -0.02   0.12  -0.42     0.24  -0.10  -0.04
    18   1     0.03   0.13   0.04     0.02  -0.13   0.44    -0.26  -0.05  -0.00
    19   1    -0.03  -0.20  -0.06    -0.02   0.10  -0.34     0.32   0.07   0.01
                     16                     17                     18
                      A                      A                      A
 Frequencies --    729.3569               742.2680               821.6158
 Red. masses --      6.3906                 2.1335                 3.6574
 Frc consts  --      2.0030                 0.6926                 1.4547
 IR Inten    --      1.2525               118.2022                 0.7430
  Atom  AN      X      Y      Z        X      Y      Z        X      Y      Z
     1   6     0.14  -0.01  -0.01    -0.00   0.00  -0.01    -0.00   0.00  -0.01
     2   7     0.03   0.00  -0.00    -0.00   0.03  -0.10    -0.00   0.01  -0.05
     3   6     0.02   0.14   0.04     0.01  -0.05   0.18     0.01  -0.09   0.30
     4   8     0.09   0.15   0.04    -0.00   0.01  -0.05    -0.00   0.02  -0.08
     5   6    -0.15   0.09   0.03    -0.00   0.01  -0.03    -0.01   0.08  -0.27
     6   6    -0.07   0.34   0.10    -0.00   0.01  -0.05     0.00  -0.01   0.05
     7   6     0.07   0.03   0.00    -0.00   0.01  -0.05    -0.00   0.00  -0.01
     8   6     0.08  -0.03  -0.01    -0.00   0.01  -0.05     0.01  -0.03   0.11
     9   6    -0.13  -0.33  -0.09    -0.00   0.01  -0.04    -0.00  -0.00   0.00
    10   6    -0.16  -0.08  -0.02    -0.00   0.01  -0.04     0.01  -0.04   0.14
    11   6    -0.00  -0.13  -0.04     0.01  -0.05   0.18    -0.00   0.03  -0.09
    12   8     0.05  -0.16  -0.05    -0.00   0.01  -0.05     0.00  -0.01   0.03
    13   1     0.16  -0.02  -0.01    -0.09   0.00   0.03    -0.07  -0.01   0.02
    14   1     0.16  -0.02  -0.01     0.09  -0.02   0.02     0.07  -0.01   0.02
    15   1     0.15  -0.01  -0.01     0.00  -0.01   0.03     0.00  -0.01   0.03
    16   1    -0.15   0.35   0.11     0.02  -0.12   0.41     0.01  -0.06   0.20
    17   1    -0.11  -0.23  -0.05     0.02  -0.14   0.49    -0.02   0.11  -0.39
    18   1    -0.05   0.24   0.08     0.02  -0.14   0.48    -0.02   0.12  -0.41
    19   1    -0.24  -0.33  -0.08     0.02  -0.12   0.42    -0.03   0.17  -0.58
                     19                     20                     21
                      A                      A                      A
 Frequencies --    821.8268               886.2254               930.7062
 Red. masses --      2.4822                 4.6139                 1.4103
 Frc consts  --      0.9877                 2.1350                 0.7198
 IR Inten    --      2.8921                 9.5641                 0.0026
  Atom  AN      X      Y      Z        X      Y      Z        X      Y      Z
     1   6    -0.00   0.00  -0.01     0.00   0.05   0.01    -0.00   0.00  -0.00
     2   7    -0.00   0.02  -0.07     0.02   0.17   0.05     0.00  -0.00   0.00
     3   6     0.00  -0.01   0.05    -0.24   0.05   0.02     0.00  -0.01   0.04
     4   8    -0.00   0.00  -0.01     0.03  -0.12  -0.04    -0.00   0.00  -0.01
     5   6     0.00  -0.00   0.02    -0.05   0.03   0.01    -0.00   0.02  -0.05
     6   6     0.00  -0.01   0.02     0.07   0.08   0.02     0.00  -0.03   0.10
     7   6     0.00  -0.03   0.10     0.18  -0.11  -0.04     0.00  -0.01   0.05
     8   6     0.00  -0.01   0.04    -0.20  -0.08  -0.01    -0.00   0.01  -0.05
     9   6     0.00  -0.01   0.05    -0.05   0.09   0.03    -0.00   0.03  -0.10
    10   6    -0.01   0.06  -0.20     0.06   0.02   0.00     0.00  -0.02   0.05
    11   6     0.01  -0.07   0.24     0.24   0.00  -0.01    -0.00   0.01  -0.04
    12   8    -0.00   0.02  -0.06    -0.05  -0.12  -0.03     0.00  -0.00   0.01
    13   1    -0.05   0.00   0.02     0.24  -0.23  -0.04    -0.01  -0.00   0.00
    14   1     0.05  -0.01   0.01     0.24  -0.21  -0.11     0.01   0.00   0.00
    15   1     0.00  -0.00   0.01    -0.53  -0.08   0.00     0.00  -0.00   0.00
    16   1    -0.02   0.13  -0.45    -0.06   0.09   0.03    -0.03   0.17  -0.58
    17   1    -0.02   0.16  -0.55     0.28   0.02  -0.01    -0.02   0.10  -0.33
    18   1    -0.02   0.15  -0.54    -0.27   0.06   0.03     0.01  -0.10   0.33
    19   1    -0.00   0.02  -0.06     0.07   0.08   0.02     0.03  -0.17   0.58
                     22                     23                     24
                      A                      A                      A
 Frequencies --   1008.7738              1012.4661              1046.2544
 Red. masses --      1.4083                 6.4112                 2.2234
 Frc consts  --      0.8444                 3.8721                 1.4340
 IR Inten    --      0.3519                31.2752               151.2302
  Atom  AN      X      Y      Z        X      Y      Z        X      Y      Z
     1   6     0.00  -0.00   0.00     0.31  -0.03  -0.02     0.01  -0.13  -0.04
     2   7     0.00  -0.00   0.01    -0.16   0.02   0.01    -0.03  -0.12  -0.03
     3   6    -0.00   0.01  -0.02    -0.26   0.13   0.05    -0.11   0.10   0.03
     4   8     0.00  -0.00   0.00     0.07  -0.00  -0.00     0.03   0.04   0.01
     5   6     0.00  -0.01   0.03    -0.12  -0.03  -0.00    -0.07  -0.04  -0.01
     6   6    -0.00   0.03  -0.10     0.00  -0.18  -0.05     0.02   0.04   0.01
     7   6     0.00  -0.02   0.07     0.14  -0.11  -0.04     0.04  -0.01  -0.00
     8   6     0.00  -0.02   0.07     0.16   0.08   0.02    -0.09  -0.03  -0.00
     9   6    -0.00   0.03  -0.10     0.04   0.18   0.05     0.02   0.02   0.00
    10   6     0.00  -0.01   0.03    -0.11   0.05   0.02     0.06  -0.04  -0.01
    11   6    -0.00   0.01  -0.02    -0.29  -0.09  -0.01     0.11   0.07   0.02
    12   8     0.00  -0.00   0.00     0.07  -0.01  -0.01    -0.02   0.04   0.01
    13   1     0.01   0.00  -0.00     0.34  -0.03  -0.03    -0.30   0.28   0.02
    14   1    -0.01   0.00  -0.00     0.34  -0.03  -0.02    -0.30   0.24   0.15
    15   1    -0.00   0.00  -0.00     0.35  -0.02  -0.02     0.70   0.03  -0.02
    16   1     0.02  -0.16   0.55     0.01  -0.20  -0.06     0.16   0.02  -0.00
    17   1    -0.02   0.11  -0.37     0.16  -0.11  -0.04     0.09   0.07   0.02
    18   1    -0.02   0.11  -0.37     0.18   0.08   0.02    -0.10  -0.00   0.00
    19   1     0.02  -0.16   0.55     0.05   0.20   0.06     0.11   0.01  -0.00
                     25                     26                     27
                      A                      A                      A
 Frequencies --   1049.0057              1051.2639              1108.9890
 Red. masses --      1.8059                 1.3678                 1.9861
 Frc consts  --      1.1708                 0.8906                 1.4392
 IR Inten    --      6.0205                 0.0039                21.4838
  Atom  AN      X      Y      Z        X      Y      Z        X      Y      Z
     1   6     0.06   0.02   0.00     0.00   0.00   0.00    -0.00   0.01   0.00
     2   7    -0.03   0.03   0.01    -0.00   0.00  -0.00     0.00   0.02   0.00
     3   6    -0.03   0.01   0.00    -0.00   0.00  -0.00     0.06  -0.02  -0.01
     4   8     0.01  -0.01  -0.00     0.00  -0.00   0.00     0.01   0.02   0.01
     5   6    -0.00  -0.01  -0.00    -0.00  -0.00   0.00    -0.05  -0.08  -0.02
     6   6     0.09   0.04   0.01     0.00   0.02  -0.06     0.05   0.15   0.04
     7   6    -0.10   0.10   0.03     0.00  -0.03   0.11    -0.01  -0.07  -0.02
     8   6    -0.10  -0.07  -0.01    -0.01   0.03  -0.11    -0.00  -0.07  -0.02
     9   6     0.08  -0.06  -0.02     0.01  -0.02   0.06    -0.02   0.15   0.04
    10   6    -0.02   0.02   0.01    -0.00   0.00  -0.00     0.04  -0.09  -0.03
    11   6    -0.07  -0.03  -0.01    -0.00  -0.00   0.00    -0.06  -0.01  -0.00
    12   8     0.02  -0.01  -0.00     0.00   0.00  -0.00    -0.00   0.02   0.01
    13   1     0.11  -0.05  -0.01     0.00  -0.00  -0.00     0.02  -0.01   0.00
    14   1     0.11  -0.05  -0.03     0.00  -0.00  -0.00     0.02  -0.01  -0.01
    15   1    -0.06  -0.01   0.00    -0.00   0.00  -0.00    -0.04   0.00   0.00
    16   1     0.62   0.00  -0.04     0.03  -0.09   0.32     0.41   0.13   0.02
    17   1    -0.04   0.20   0.09    -0.03   0.18  -0.58    -0.27  -0.42  -0.11
    18   1    -0.05  -0.21  -0.08     0.02  -0.17   0.59     0.18  -0.46  -0.14
    19   1     0.62  -0.11  -0.05     0.01   0.09  -0.32    -0.38   0.19   0.07
                     28                     29                     30
                      A                      A                      A
 Frequencies --   1162.4762              1177.1162              1198.6657
 Red. masses --      1.3141                 1.1225                 2.2180
 Frc consts  --      1.0463                 0.9164                 1.8776
 IR Inten    --      0.3550                 4.2091                11.1885
  Atom  AN      X      Y      Z        X      Y      Z        X      Y      Z
     1   6    -0.01   0.04  -0.14    -0.02   0.00   0.00    -0.00   0.03   0.01
     2   7     0.00  -0.02   0.07     0.02  -0.00  -0.00     0.01   0.00   0.00
     3   6    -0.00   0.00  -0.01     0.02  -0.01  -0.00     0.09  -0.04  -0.02
     4   8     0.00  -0.00   0.00    -0.00   0.00   0.00     0.01   0.04   0.01
     5   6     0.00  -0.00   0.00    -0.01  -0.01  -0.00    -0.11  -0.12  -0.03
     6   6    -0.00   0.00  -0.00     0.00  -0.01  -0.00    -0.07   0.07   0.02
     7   6    -0.00  -0.00  -0.00    -0.02  -0.06  -0.02     0.07   0.01  -0.00
     8   6     0.00   0.00   0.00    -0.00   0.06   0.02    -0.07   0.02   0.01
     9   6    -0.00   0.00  -0.00     0.01   0.01   0.00     0.08   0.06   0.01
    10   6    -0.00   0.00  -0.00    -0.01   0.01   0.00     0.08  -0.13  -0.04
    11   6     0.00  -0.00   0.00     0.02   0.00   0.00    -0.10  -0.03  -0.00
    12   8     0.00  -0.00   0.00    -0.00  -0.00  -0.00    -0.00   0.04   0.01
    13   1    -0.62  -0.12   0.19    -0.02   0.00   0.00     0.04  -0.05   0.00
    14   1     0.63   0.01   0.17    -0.02   0.00  -0.00     0.04  -0.04  -0.03
    15   1     0.02  -0.09   0.31    -0.02   0.00   0.00    -0.10   0.00   0.01
    16   1     0.00  -0.00   0.00     0.30  -0.04  -0.03    -0.57   0.12   0.06
    17   1    -0.00  -0.00   0.00    -0.34  -0.52  -0.13     0.21   0.19   0.05
    18   1    -0.00  -0.00   0.00    -0.23   0.56   0.17    -0.16   0.23   0.07
    19   1     0.00   0.00  -0.00     0.30  -0.01  -0.02     0.60   0.02  -0.02
                     31                     32                     33
                      A                      A                      A
 Frequencies --   1243.3076              1295.5628              1323.9739
 Red. masses --      3.9785                 2.2534                 1.9760
 Frc consts  --      3.6234                 2.2284                 2.0408
 IR Inten    --     59.4584                67.9575                45.2841
  Atom  AN      X      Y      Z        X      Y      Z        X      Y      Z
     1   6     0.10  -0.01  -0.01    -0.01  -0.12  -0.03    -0.00  -0.07  -0.02
     2   7    -0.14   0.03   0.01     0.01   0.22   0.06     0.01   0.15   0.04
     3   6    -0.09   0.02   0.01     0.01  -0.03  -0.01     0.08  -0.06  -0.02
     4   8    -0.02  -0.05  -0.01    -0.01  -0.05  -0.01    -0.01  -0.02  -0.01
     5   6     0.22   0.13   0.03     0.07  -0.04  -0.02    -0.09   0.05   0.02
     6   6     0.12   0.07   0.01     0.04   0.01   0.00    -0.08  -0.01   0.00
     7   6    -0.13  -0.04  -0.01    -0.02   0.03   0.01     0.01  -0.04  -0.01
     8   6    -0.12   0.06   0.02     0.03   0.02   0.01    -0.02  -0.04  -0.01
     9   6     0.11  -0.08  -0.03    -0.05   0.03   0.01     0.07  -0.02  -0.01
    10   6     0.19  -0.17  -0.06    -0.09  -0.02  -0.00     0.09   0.04   0.01
    11   6    -0.10  -0.01   0.00     0.01  -0.02  -0.01    -0.08  -0.04  -0.01
    12   8    -0.01   0.05   0.01    -0.00  -0.06  -0.02     0.01  -0.03  -0.01
    13   1     0.11   0.00  -0.02    -0.19   0.33  -0.04    -0.09   0.21  -0.03
    14   1     0.11  -0.00   0.01    -0.18   0.25   0.23    -0.09   0.16   0.15
    15   1     0.14  -0.01  -0.01     0.36  -0.03  -0.03     0.17  -0.02  -0.01
    16   1    -0.48   0.13   0.06    -0.38   0.05   0.03     0.46  -0.06  -0.04
    17   1    -0.27  -0.21  -0.05    -0.18  -0.19  -0.05     0.27   0.32   0.08
    18   1    -0.22   0.25   0.08     0.15  -0.23  -0.07    -0.20   0.35   0.11
    19   1    -0.46  -0.05   0.01     0.41  -0.01  -0.02    -0.46   0.02   0.03
                     34                     35                     36
                      A                      A                      A
 Frequencies --   1416.7016              1439.9700              1477.7379
 Red. masses --      5.4571                 1.4847                 1.0421
 Frc consts  --      6.4531                 1.8139                 1.3407
 IR Inten    --      0.2679                74.0929                22.3697
  Atom  AN      X      Y      Z        X      Y      Z        X      Y      Z
     1   6    -0.01  -0.00  -0.00    -0.17   0.01   0.01    -0.01   0.01  -0.05
     2   7     0.13  -0.02  -0.01     0.09   0.01   0.00     0.01   0.00  -0.02
     3   6     0.03  -0.02  -0.01    -0.03   0.02   0.01    -0.01   0.00   0.00
     4   8    -0.00   0.01   0.00     0.00  -0.01  -0.00     0.00   0.00  -0.00
     5   6    -0.19   0.17   0.06    -0.01   0.01   0.00     0.00  -0.00  -0.00
     6   6     0.19  -0.01  -0.01     0.02   0.00  -0.00     0.00  -0.00  -0.00
     7   6    -0.11  -0.26  -0.07    -0.01  -0.02  -0.00     0.00   0.00   0.00
     8   6    -0.06   0.27   0.08    -0.01   0.02   0.00    -0.00  -0.00  -0.00
     9   6     0.20  -0.02  -0.01     0.02  -0.00  -0.00     0.00  -0.00  -0.00
    10   6    -0.22  -0.14  -0.03    -0.01  -0.01  -0.00     0.00   0.00   0.00
    11   6     0.04   0.01   0.00    -0.04  -0.02  -0.00    -0.01  -0.00   0.00
    12   8    -0.00  -0.01  -0.00     0.00   0.01   0.00     0.00   0.00  -0.00
    13   1    -0.20   0.11   0.06     0.39  -0.20  -0.20     0.30  -0.35  -0.10
    14   1    -0.20   0.12   0.02     0.41  -0.27   0.03    -0.27   0.40   0.20
    15   1    -0.30  -0.07  -0.01     0.66   0.21   0.03    -0.01  -0.21   0.68
    16   1    -0.01   0.00   0.00    -0.01   0.00   0.00    -0.01   0.00   0.00
    17   1     0.31   0.31   0.07     0.02   0.02   0.00    -0.01  -0.01  -0.00
    18   1     0.24  -0.35  -0.11     0.01  -0.01  -0.00    -0.00   0.00   0.00
    19   1    -0.01   0.00   0.00    -0.01  -0.00   0.00    -0.01   0.00   0.00
                     37                     38                     39
                      A                      A                      A
 Frequencies --   1480.4112              1503.8386              1522.3011
 Red. masses --      1.9787                 1.4768                 2.7657
 Frc consts  --      2.5550                 1.9678                 3.7762
 IR Inten    --    386.8875               132.6848                17.1834
  Atom  AN      X      Y      Z        X      Y      Z        X      Y      Z
     1   6    -0.05  -0.04  -0.00    -0.01  -0.02  -0.01     0.00   0.00  -0.00
     2   7     0.19  -0.05  -0.02    -0.13  -0.03  -0.00    -0.01   0.01   0.00
     3   6    -0.12   0.06   0.02     0.07  -0.03  -0.01     0.04  -0.02  -0.01
     4   8     0.02   0.00  -0.00    -0.01   0.01   0.00    -0.01   0.00   0.00
     5   6     0.02  -0.03  -0.01     0.00   0.04   0.01    -0.13   0.06   0.02
     6   6     0.02  -0.00  -0.00    -0.04  -0.00   0.00    -0.02  -0.11  -0.03
     7   6     0.00   0.04   0.01     0.01  -0.03  -0.01     0.18   0.11   0.02
     8   6    -0.01  -0.03  -0.01     0.01   0.04   0.01    -0.16   0.13   0.04
     9   6     0.02  -0.01  -0.00    -0.04  -0.00   0.00     0.03  -0.11  -0.03
    10   6     0.03   0.02   0.01     0.00  -0.04  -0.01     0.12   0.07   0.01
    11   6    -0.11  -0.03  -0.00     0.08   0.02   0.00    -0.04  -0.01  -0.00
    12   8     0.02   0.01   0.00    -0.01   0.01   0.00     0.01  -0.01  -0.00
    13   1     0.04   0.57  -0.16     0.44   0.39  -0.30    -0.02  -0.03   0.01
    14   1     0.15   0.28   0.39     0.48   0.17   0.42    -0.02  -0.02  -0.03
    15   1    -0.49  -0.11  -0.12    -0.13  -0.04  -0.01     0.04   0.01   0.00
    16   1    -0.11   0.01   0.01     0.15  -0.02  -0.01    -0.07  -0.13  -0.03
    17   1    -0.09  -0.08  -0.02     0.07   0.03   0.01    -0.29  -0.56  -0.15
    18   1    -0.06   0.05   0.02     0.08  -0.10  -0.03     0.14  -0.57  -0.17
    19   1    -0.11   0.00   0.01     0.15  -0.02  -0.01    -0.06  -0.13  -0.03
                     40                     41                     42
                      A                      A                      A
 Frequencies --   1525.3234              1703.9743              1706.3811
 Red. masses --      3.1069                 7.7510                 7.6052
 Frc consts  --      4.2590                13.2598                13.0471
 IR Inten    --     43.5688                 3.1914                12.1350
  Atom  AN      X      Y      Z        X      Y      Z        X      Y      Z
     1   6     0.00  -0.00  -0.00    -0.01  -0.00   0.00    -0.00   0.00   0.00
     2   7    -0.10  -0.01   0.00     0.02  -0.00  -0.00     0.00  -0.01  -0.00
     3   6     0.07  -0.03  -0.01     0.05  -0.01  -0.00     0.06  -0.01  -0.01
     4   8     0.01   0.03   0.01    -0.02  -0.02  -0.00    -0.01  -0.01  -0.00
     5   6    -0.12  -0.16  -0.04    -0.08   0.35   0.10    -0.32   0.17   0.06
     6   6     0.18  -0.01  -0.01     0.00  -0.17  -0.05     0.38  -0.09  -0.04
     7   6    -0.06   0.06   0.02     0.13   0.30   0.08    -0.17  -0.02   0.00
     8   6    -0.04  -0.08  -0.02     0.03  -0.30  -0.09     0.17  -0.11  -0.04
     9   6     0.18  -0.00  -0.01     0.12   0.17   0.04    -0.37   0.01   0.02
    10   6    -0.11   0.16   0.05    -0.23  -0.35  -0.09     0.31   0.04  -0.00
    11   6     0.08   0.03   0.00     0.06  -0.00  -0.00    -0.05   0.00   0.00
    12   8     0.00  -0.03  -0.01    -0.02   0.02   0.01     0.01  -0.00  -0.00
    13   1     0.21   0.09  -0.12     0.00   0.00  -0.01     0.00   0.00  -0.00
    14   1     0.22   0.01   0.13     0.00  -0.00   0.01     0.00   0.00   0.00
    15   1     0.02   0.01   0.00     0.01   0.01   0.00     0.00   0.00   0.00
    16   1    -0.52   0.05   0.04    -0.03  -0.20  -0.06    -0.41  -0.04   0.01
    17   1    -0.19  -0.09  -0.02    -0.29  -0.25  -0.06    -0.08   0.14   0.04
    18   1    -0.20   0.23   0.07    -0.25   0.26   0.09     0.06   0.19   0.05
    19   1    -0.52   0.06   0.04    -0.08   0.22   0.07     0.39  -0.06  -0.03
                     43                     44                     45
                      A                      A                      A
 Frequencies --   1846.1794              1913.0676              3058.9386
 Red. masses --     12.9688                12.5322                 1.0347
 Frc consts  --     26.0433                27.0233                 5.7044
 IR Inten    --   1207.3214               144.3758                41.8486
  Atom  AN      X      Y      Z        X      Y      Z        X      Y      Z
     1   6    -0.00   0.02   0.01    -0.02   0.00   0.00    -0.05  -0.01  -0.00
     2   7    -0.01  -0.07  -0.02     0.02  -0.00  -0.00    -0.00   0.00   0.00
     3   6     0.30   0.49   0.13    -0.27  -0.51  -0.13     0.00  -0.00  -0.00
     4   8    -0.17  -0.32  -0.08     0.16   0.30   0.08     0.00   0.00   0.00
     5   6    -0.01  -0.06  -0.02     0.05   0.06   0.01    -0.00   0.00   0.00
     6   6    -0.02   0.02   0.01    -0.01  -0.01  -0.00     0.00   0.00   0.00
     7   6     0.01  -0.00  -0.00     0.00   0.01   0.00    -0.00   0.00   0.00
     8   6    -0.01   0.00   0.00    -0.00  -0.01  -0.00    -0.00  -0.00  -0.00
     9   6     0.02   0.01   0.00    -0.01   0.01   0.00     0.00  -0.00  -0.00
    10   6     0.00  -0.06  -0.02     0.04  -0.06  -0.02    -0.00  -0.00  -0.00
    11   6    -0.20   0.53   0.16    -0.16   0.54   0.16     0.00   0.00   0.00
    12   8     0.10  -0.34  -0.10     0.09  -0.32  -0.10     0.00  -0.00  -0.00
    13   1     0.06   0.00  -0.01     0.08  -0.04  -0.06     0.26   0.11   0.56
    14   1     0.06   0.00   0.01     0.09  -0.07   0.02     0.22   0.40  -0.43
    15   1    -0.06   0.02   0.01     0.11   0.05   0.01     0.10  -0.43  -0.13
    16   1     0.01   0.02   0.01     0.02  -0.02  -0.01    -0.00  -0.00  -0.00
    17   1     0.02   0.01   0.00    -0.01  -0.02  -0.00     0.00  -0.00  -0.00
    18   1    -0.01   0.01   0.00    -0.01   0.02   0.01     0.00   0.00   0.00
    19   1    -0.01   0.03   0.01     0.02   0.02   0.01     0.00   0.00   0.00
                     46                     47                     48
                      A                      A                      A
 Frequencies --   3153.4622              3188.2584              3208.3020
 Red. masses --      1.1090                 1.1066                 1.0878
 Frc consts  --      6.4979                 6.6275                 6.5972
 IR Inten    --     10.5204                 0.1264                 0.4619
  Atom  AN      X      Y      Z        X      Y      Z        X      Y      Z
     1   6    -0.00   0.03  -0.09    -0.00  -0.09  -0.03     0.00   0.00   0.00
     2   7     0.00  -0.00   0.00    -0.00   0.00   0.00    -0.00  -0.00  -0.00
     3   6     0.00  -0.00   0.00    -0.00  -0.00  -0.00    -0.00   0.00   0.00
     4   8     0.00   0.00  -0.00     0.00   0.00   0.00    -0.00  -0.00  -0.00
     5   6    -0.00   0.00  -0.00     0.00   0.00   0.00     0.00  -0.00  -0.00
     6   6    -0.00   0.00  -0.00     0.00   0.00   0.00     0.00   0.02   0.01
     7   6    -0.00  -0.00   0.00    -0.00   0.00   0.00     0.05  -0.03  -0.01
     8   6     0.00  -0.00   0.00    -0.00  -0.00  -0.00    -0.05  -0.02  -0.00
     9   6     0.00  -0.00   0.00     0.00   0.00   0.00     0.00   0.02   0.01
    10   6    -0.00   0.00  -0.00     0.00   0.00   0.00    -0.00  -0.00  -0.00
    11   6    -0.00   0.00  -0.00     0.00  -0.00  -0.00     0.00   0.00   0.00
    12   8    -0.00  -0.00   0.00    -0.00   0.00   0.00    -0.00  -0.00  -0.00
    13   1     0.29   0.14   0.62     0.13   0.05   0.28    -0.00  -0.00  -0.00
    14   1    -0.25  -0.46   0.47     0.11   0.21  -0.22    -0.00  -0.00   0.00
    15   1    -0.00   0.01  -0.01    -0.20   0.83   0.25     0.00  -0.00  -0.00
    16   1    -0.00   0.00  -0.00    -0.00  -0.00  -0.00    -0.03  -0.29  -0.08
    17   1     0.00  -0.00   0.00     0.00  -0.00  -0.00    -0.53   0.35   0.13
    18   1    -0.00  -0.00   0.00     0.00   0.00   0.00     0.57   0.25   0.05
    19   1    -0.00   0.00  -0.00    -0.00  -0.00  -0.00    -0.03  -0.28  -0.08
                     49                     50                     51
                      A                      A                      A
 Frequencies --   3217.5967              3225.1980              3230.8765
 Red. masses --      1.0916                 1.0963                 1.0998
 Frc consts  --      6.6587                 6.7187                 6.7641
 IR Inten    --      2.0950                 6.1097                11.4266
  Atom  AN      X      Y      Z        X      Y      Z        X      Y      Z
     1   6     0.00  -0.00  -0.00    -0.00  -0.00  -0.00     0.00  -0.00  -0.00
     2   7    -0.00   0.00   0.00     0.00  -0.00  -0.00    -0.00   0.00   0.00
     3   6     0.00   0.00   0.00    -0.00  -0.00  -0.00     0.00   0.00   0.00
     4   8    -0.00  -0.00  -0.00     0.00   0.00   0.00    -0.00  -0.00  -0.00
     5   6     0.00  -0.00  -0.00    -0.00   0.00   0.00     0.00  -0.00  -0.00
     6   6     0.00   0.04   0.01    -0.01  -0.06  -0.02     0.01   0.04   0.01
     7   6     0.03  -0.02  -0.01     0.02  -0.01  -0.00    -0.04   0.03   0.01
     8   6     0.04   0.02   0.00    -0.03  -0.01  -0.00    -0.05  -0.02  -0.00
     9   6    -0.01  -0.04  -0.01    -0.00  -0.05  -0.02    -0.00  -0.04  -0.01
    10   6     0.00   0.00   0.00     0.00   0.00   0.00     0.00   0.00   0.00
    11   6     0.00  -0.00  -0.00     0.00  -0.00  -0.00     0.00  -0.00  -0.00
    12   8    -0.00   0.00   0.00    -0.00   0.00   0.00    -0.00   0.00   0.00
    13   1    -0.00  -0.00  -0.00     0.00   0.00   0.00    -0.00  -0.00  -0.00
    14   1    -0.00  -0.00   0.00     0.00   0.00  -0.00    -0.00  -0.00   0.00
    15   1    -0.00   0.00   0.00    -0.00   0.00   0.00    -0.00   0.00   0.00
    16   1    -0.05  -0.50  -0.14     0.07   0.62   0.18    -0.05  -0.44  -0.12
    17   1    -0.37   0.25   0.09    -0.25   0.16   0.06     0.42  -0.28  -0.10
    18   1    -0.43  -0.19  -0.04     0.27   0.11   0.02     0.49   0.21   0.04
    19   1     0.05   0.52   0.15     0.06   0.60   0.17     0.04   0.45   0.13

 -------------------
 - Thermochemistry -
 -------------------
 Temperature   298.150 Kelvin.  Pressure   1.00000 Atm.
 Atom     1 has atomic number  6 and mass  12.00000
 Atom     2 has atomic number  7 and mass  14.00307
 Atom     3 has atomic number  6 and mass  12.00000
 Atom     4 has atomic number  8 and mass  15.99491
 Atom     5 has atomic number  6 and mass  12.00000
 Atom     6 has atomic number  6 and mass  12.00000
 Atom     7 has atomic number  6 and mass  12.00000
 Atom     8 has atomic number  6 and mass  12.00000
 Atom     9 has atomic number  6 and mass  12.00000
 Atom    10 has atomic number  6 and mass  12.00000
 Atom    11 has atomic number  6 and mass  12.00000
 Atom    12 has atomic number  8 and mass  15.99491
 Atom    13 has atomic number  1 and mass   1.00783
 Atom    14 has atomic number  1 and mass   1.00783
 Atom    15 has atomic number  1 and mass   1.00783
 Atom    16 has atomic number  1 and mass   1.00783
 Atom    17 has atomic number  1 and mass   1.00783
 Atom    18 has atomic number  1 and mass   1.00783
 Atom    19 has atomic number  1 and mass   1.00783
 Molecular mass:   161.04768 amu.
 Principal axes and moments of inertia in atomic units:
                           1         2         3
     Eigenvalues --  1036.734662087.289073112.44247
           X            0.99442   0.09605   0.04354
           Y           -0.08035   0.95750  -0.27703
           Z           -0.06830   0.27198   0.95987
 This molecule is an asymmetric top.
 Rotational symmetry number  1.
 Warning -- assumption of classical behavior for rotation
           may cause significant error
 Rotational temperatures (Kelvin)      0.08354     0.04150     0.02783
 Rotational constants (GHZ):           1.74079     0.86463     0.57985
 Zero-point vibrational energy     382977.7 (Joules/Mol)
                                   91.53386 (Kcal/Mol)
 Warning -- explicit consideration of  12 degrees of freedom as
           vibrations may cause significant error
 Vibrational temperatures:    109.70   160.01   199.49   238.53   345.72
          (Kelvin)            358.40   412.51   520.34   612.32   687.63
                              700.43   779.02   893.91  1005.07  1034.77
                             1049.38  1067.96  1182.12  1182.43  1275.08
                             1339.08  1451.40  1456.71  1505.33  1509.29
                             1512.53  1595.59  1672.54  1693.61  1724.61
                             1788.84  1864.03  1904.90  2038.32  2071.80
                             2126.14  2129.98  2163.69  2190.25  2194.60
                             2451.64  2455.10  2656.24  2752.48  4401.13
                             4537.13  4587.19  4616.03  4629.40  4640.34
                             4648.51
 
 Zero-point correction=                           0.145868 (Hartree/Particle)
 Thermal correction to Energy=                    0.155339
 Thermal correction to Enthalpy=                  0.156284
 Thermal correction to Gibbs Free Energy=         0.110698
 Sum of electronic and zero-point Energies=           -551.675034
 Sum of electronic and thermal Energies=              -551.665563
 Sum of electronic and thermal Enthalpies=            -551.664619
 Sum of electronic and thermal Free Energies=         -551.710204
 
                     E (Thermal)             CV                S
                      KCal/Mol        Cal/Mol-Kelvin    Cal/Mol-Kelvin
 Total                   97.477             35.738             95.942
 Electronic               0.000              0.000              0.000
 Translational            0.889              2.981             41.138
 Rotational               0.889              2.981             30.289
 Vibrational             95.700             29.776             24.515
 Vibration     1          0.599              1.965              3.985
 Vibration     2          0.607              1.940              3.248
 Vibration     3          0.614              1.915              2.822
 Vibration     4          0.624              1.885              2.483
 Vibration     5          0.657              1.779              1.801
 Vibration     6          0.662              1.764              1.737
 Vibration     7          0.684              1.698              1.493
 Vibration     8          0.736              1.551              1.115
 Vibration     9          0.787              1.415              0.873
 Vibration    10          0.834              1.299              0.716
 Vibration    11          0.843              1.279              0.692
 Vibration    12          0.897              1.158              0.562
                       Q            Log10(Q)             Ln(Q)
 Total Bot       0.120864D-50        -50.917704       -117.242346
 Total V=0       0.150344D+17         16.177086         37.249116
 Vib (Bot)       0.161953D-64        -64.790611       -149.185894
 Vib (Bot)    1  0.270266D+01          0.431791          0.994236
 Vib (Bot)    2  0.184116D+01          0.265092          0.610396
 Vib (Bot)    3  0.146706D+01          0.166447          0.383258
 Vib (Bot)    4  0.121721D+01          0.085367          0.196564
 Vib (Bot)    5  0.815908D+00         -0.088359         -0.203454
 Vib (Bot)    6  0.783829D+00         -0.105779         -0.243565
 Vib (Bot)    7  0.668179D+00         -0.175107         -0.403200
 Vib (Bot)    8  0.506255D+00         -0.295631         -0.680714
 Vib (Bot)    9  0.410820D+00         -0.386349         -0.889601
 Vib (Bot)   10  0.350561D+00         -0.455236         -1.048220
 Vib (Bot)   11  0.341529D+00         -0.466573         -1.074324
 Vib (Bot)   12  0.292216D+00         -0.534297         -1.230264
 Vib (V=0)       0.201455D+03          2.304179          5.305567
 Vib (V=0)    1  0.324852D+01          0.511686          1.178199
 Vib (V=0)    2  0.240785D+01          0.381629          0.878732
 Vib (V=0)    3  0.204992D+01          0.311737          0.717801
 Vib (V=0)    4  0.181591D+01          0.259093          0.596584
 Vib (V=0)    5  0.145692D+01          0.163437          0.376328
 Vib (V=0)    6  0.142972D+01          0.155252          0.357482
 Vib (V=0)    7  0.133454D+01          0.125333          0.288589
 Vib (V=0)    8  0.121154D+01          0.083339          0.191895
 Vib (V=0)    9  0.114713D+01          0.059611          0.137260
 Vib (V=0)   10  0.111065D+01          0.045577          0.104945
 Vib (V=0)   11  0.110551D+01          0.043563          0.100306
 Vib (V=0)   12  0.107913D+01          0.033073          0.076154
 Electronic      0.100000D+01          0.000000          0.000000
 Translational   0.803314D+08          7.904886         18.201672
 Rotational      0.929012D+06          5.968021         13.741877
 
                                                        Cavity NMPHTH solvent
                                                             IR Spectrum
 
   33333 3  3                                            1  1    11   11111 11  1 1 1111111111                                       
   22221 1  0                                            9  8    77   55544 44  3 2 2111100000  9 888 7776  6  5 44 4 3  222  111    
   32108 5  5                                            1  4    00   22087 41  2 9 4976054410  3 822 4219  2  4 87 2 6  844  631 7  
   15888 3  9                                            3  6    64   52408 07  4 6 3972919629  1 622 2999  1  1 78 6 2  790  691 6  
 
   XXXXX X  X                                            X  X    XX   XXXXX XX  X X XXXXX XXXX    XXX XXX   X  X X  X X  XX   X X    
                                                         X  X           XX                 X          X                              
                                                            X            X                 X                                         
                                                            X            X                                                           
                                                            X            X                                                           
                                                            X            X                                                           
                                                            X                                                                        
                                                            X                                                                        
                                                            X                                                                        
                                                            X                                                                        
                                                            X                                                                        
                                                            X                                                                        
                                                            X                                                                        
                                                            X                                                                        
                                                            X                                                                        
                                                            X                                                                        
                                                            X                                                                        
                                                            X                                                                        
                                                            X                                                                        
                                                            X                                                                        
 
 -------------------------------------------------------------------
 Center     Atomic                   Forces (Hartrees/Bohr)
 Number     Number              X              Y              Z
 -------------------------------------------------------------------
      1        6           0.000001804   -0.000111940   -0.000028760
      2        7           0.000033427    0.000041449   -0.000008025
      3        6          -0.000018740    0.000066577    0.000019483
      4        8          -0.000030005   -0.000049569   -0.000013515
      5        6           0.000012109    0.000007977    0.000004717
      6        6          -0.000004160    0.000001961    0.000000359
      7        6           0.000000971   -0.000020109   -0.000006996
      8        6           0.000004689    0.000023092    0.000005951
      9        6          -0.000005894    0.000004275    0.000001460
     10        6           0.000004513   -0.000003221   -0.000001134
     11        6          -0.000011659   -0.000023456    0.000002855
     12        8           0.000022414    0.000057570    0.000011167
     13        1          -0.000020982    0.000002046    0.000008420
     14        1          -0.000037376    0.000008653    0.000004283
     15        1           0.000057186   -0.000011848   -0.000000372
     16        1           0.000001588    0.000008725    0.000001530
     17        1          -0.000003259    0.000003461    0.000000165
     18        1          -0.000004900    0.000001189    0.000000217
     19        1          -0.000001727   -0.000006833   -0.000001801
 -------------------------------------------------------------------
 Cartesian Forces:  Max     0.000111940 RMS     0.000025334
 FormGI is forming the generalized inverse of G from B-inverse, IUseBI=4.
 Leave Link  716 at Wed Feb 28 21:01:56 2024, MaxMem=  2147483648 cpu:               3.2 elap:               0.1
 (Enter /software/gaussian-16RevA.03-el7-x86_64/g16/l103.exe)

 GradGradGradGradGradGradGradGradGradGradGradGradGradGradGradGradGradGrad
 Berny optimization.
 Red2BG is reusing G-inverse.
 Internal  Forces:  Max     0.000102345 RMS     0.000020274
 Step   1 in ReCalcFC=50 IGetFC= 4 recover analytic Hessian.
 Search for a local minimum.
 Step number   1 out of a maximum of    2
 All quantities printed in internal units (Hartrees-Bohrs-Radians)
 Second derivative matrix not updated -- analytic derivatives used.
 ITU=  0
     Eigenvalues ---    0.00043   0.00547   0.00985   0.01466   0.01538
     Eigenvalues ---    0.01772   0.01846   0.02121   0.02416   0.02683
     Eigenvalues ---    0.03015   0.03157   0.04326   0.04704   0.05977
     Eigenvalues ---    0.06207   0.10723   0.10836   0.12153   0.12491
     Eigenvalues ---    0.13483   0.15074   0.16200   0.17570   0.18296
     Eigenvalues ---    0.18908   0.19437   0.19872   0.22520   0.22803
     Eigenvalues ---    0.24235   0.26413   0.27978   0.33075   0.34106
     Eigenvalues ---    0.34319   0.34661   0.35387   0.35930   0.36431
     Eigenvalues ---    0.36512   0.36669   0.36755   0.40396   0.42395
     Eigenvalues ---    0.43098   0.48346   0.49943   0.52997   0.90465
     Eigenvalues ---    0.92467
 Angle between quadratic step and forces=  78.53 degrees.
 Linear search not attempted -- first point.
 Iteration  1 RMS(Cart)=  0.00060007 RMS(Int)=  0.00000047
 Iteration  2 RMS(Cart)=  0.00000049 RMS(Int)=  0.00000002
 ITry= 1 IFail=0 DXMaxC= 3.35D-03 DCOld= 1.00D+10 DXMaxT= 3.00D-01 DXLimC= 3.00D+00 Rises=F
 Variable       Old X    -DE/DX   Delta X   Delta X   Delta X     New X
                                 (Linear)    (Quad)   (Total)
    R1        2.72962  -0.00001   0.00000  -0.00004  -0.00004   2.72959
    R2        2.08191   0.00000   0.00000  -0.00002  -0.00002   2.08189
    R3        2.08178   0.00001   0.00000   0.00003   0.00003   2.08181
    R4        2.07715  -0.00002   0.00000  -0.00002  -0.00002   2.07713
    R5        2.63418  -0.00005   0.00000  -0.00011  -0.00011   2.63407
    R6        2.63804   0.00004   0.00000   0.00006   0.00006   2.63810
    R7        2.27865   0.00006   0.00000   0.00007   0.00007   2.27873
    R8        2.82476   0.00001   0.00000   0.00001   0.00001   2.82477
    R9        2.61840  -0.00001   0.00000  -0.00001  -0.00001   2.61838
   R10        2.63195  -0.00001   0.00000  -0.00002  -0.00002   2.63193
   R11        2.64732  -0.00000   0.00000  -0.00001  -0.00001   2.64731
   R12        2.06491  -0.00001   0.00000  -0.00002  -0.00002   2.06489
   R13        2.64385   0.00002   0.00000   0.00005   0.00005   2.64390
   R14        2.06607  -0.00000   0.00000  -0.00001  -0.00001   2.06605
   R15        2.64733  -0.00000   0.00000  -0.00001  -0.00001   2.64732
   R16        2.06603  -0.00000   0.00000  -0.00001  -0.00001   2.06602
   R17        2.61849  -0.00001   0.00000  -0.00001  -0.00001   2.61849
   R18        2.06491  -0.00001   0.00000  -0.00002  -0.00002   2.06489
   R19        2.82514  -0.00000   0.00000   0.00001   0.00001   2.82514
   R20        2.27823   0.00005   0.00000   0.00004   0.00004   2.27827
    A1        1.92884   0.00004   0.00000   0.00019   0.00019   1.92903
    A2        1.92828   0.00007   0.00000   0.00045   0.00045   1.92873
    A3        1.88174  -0.00010   0.00000  -0.00058  -0.00058   1.88117
    A4        1.90253  -0.00003   0.00000   0.00001   0.00001   1.90255
    A5        1.91095   0.00002   0.00000   0.00004   0.00004   1.91099
    A6        1.91135   0.00000   0.00000  -0.00012  -0.00012   1.91123
    A7        2.15301  -0.00006   0.00000  -0.00026  -0.00026   2.15275
    A8        2.16873   0.00005   0.00000   0.00022   0.00022   2.16895
    A9        1.96144   0.00002   0.00000   0.00004   0.00004   1.96148
   A10        2.18143  -0.00000   0.00000  -0.00004  -0.00004   2.18139
   A11        1.84747  -0.00000   0.00000   0.00001   0.00001   1.84748
   A12        2.25428   0.00001   0.00000   0.00003   0.00003   2.25431
   A13        2.27632  -0.00001   0.00000   0.00003   0.00003   2.27635
   A14        1.88430   0.00000   0.00000  -0.00003  -0.00003   1.88427
   A15        2.12256   0.00000   0.00000   0.00000   0.00000   2.12256
   A16        2.04715   0.00000   0.00000   0.00001   0.00001   2.04716
   A17        2.11598  -0.00000   0.00000  -0.00001  -0.00001   2.11597
   A18        2.12006  -0.00000   0.00000  -0.00000  -0.00000   2.12006
   A19        2.11345  -0.00000   0.00000  -0.00001  -0.00001   2.11343
   A20        2.08660   0.00000   0.00000   0.00000   0.00000   2.08660
   A21        2.08313   0.00000   0.00000   0.00001   0.00001   2.08315
   A22        2.11332  -0.00000   0.00000  -0.00001  -0.00001   2.11330
   A23        2.08317   0.00000   0.00000   0.00001   0.00001   2.08318
   A24        2.08670   0.00000   0.00000   0.00000   0.00000   2.08670
   A25        2.04704   0.00000   0.00000   0.00001   0.00001   2.04704
   A26        2.12026  -0.00000   0.00000  -0.00000  -0.00000   2.12026
   A27        2.11588  -0.00000   0.00000  -0.00000  -0.00000   2.11588
   A28        2.12286   0.00000   0.00000   0.00001   0.00001   2.12286
   A29        1.88666   0.00000   0.00000   0.00004   0.00004   1.88670
   A30        2.27367  -0.00001   0.00000  -0.00005  -0.00005   2.27362
   A31        1.84491  -0.00002   0.00000  -0.00007  -0.00007   1.84484
   A32        2.18968   0.00005   0.00000   0.00019   0.00019   2.18987
   A33        2.24860  -0.00003   0.00000  -0.00012  -0.00012   2.24847
    D1       -1.05844  -0.00002   0.00000   0.00133   0.00133  -1.05710
    D2        2.08247  -0.00002   0.00000   0.00178   0.00178   2.08424
    D3        1.04868   0.00002   0.00000   0.00177   0.00177   1.05044
    D4       -2.09361   0.00002   0.00000   0.00221   0.00221  -2.09140
    D5        3.13679  -0.00000   0.00000   0.00153   0.00153   3.13832
    D6       -0.00549   0.00000   0.00000   0.00198   0.00198  -0.00352
    D7       -0.00042   0.00000   0.00000   0.00031   0.00031  -0.00011
    D8        3.14108   0.00000   0.00000   0.00032   0.00032   3.14139
    D9       -3.14140   0.00000   0.00000  -0.00009  -0.00009  -3.14148
   D10        0.00010   0.00000   0.00000  -0.00008  -0.00008   0.00002
   D11       -3.14088  -0.00000   0.00000  -0.00033  -0.00033  -3.14121
   D12        0.00089  -0.00000   0.00000  -0.00041  -0.00041   0.00048
   D13        0.00009  -0.00000   0.00000   0.00007   0.00007   0.00016
   D14       -3.14132  -0.00000   0.00000  -0.00001  -0.00001  -3.14133
   D15        3.14132   0.00000   0.00000   0.00009   0.00009   3.14141
   D16       -0.00027  -0.00000   0.00000   0.00006   0.00006  -0.00021
   D17       -0.00037   0.00000   0.00000   0.00010   0.00010  -0.00027
   D18        3.14122   0.00000   0.00000   0.00007   0.00007   3.14129
   D19        3.14155  -0.00000   0.00000  -0.00002  -0.00002   3.14153
   D20       -0.00016  -0.00000   0.00000  -0.00001  -0.00001  -0.00016
   D21       -0.00005   0.00000   0.00000   0.00002   0.00002  -0.00003
   D22        3.14143   0.00000   0.00000   0.00003   0.00003   3.14146
   D23       -3.14153   0.00000   0.00000   0.00001   0.00001  -3.14152
   D24        0.00033   0.00000   0.00000  -0.00002  -0.00002   0.00031
   D25        0.00007  -0.00000   0.00000  -0.00002  -0.00002   0.00004
   D26       -3.14126  -0.00000   0.00000  -0.00005  -0.00005  -3.14132
   D27       -0.00001   0.00000   0.00000  -0.00000  -0.00000  -0.00001
   D28       -3.14158   0.00000   0.00000  -0.00000  -0.00000  -3.14158
   D29       -3.14149  -0.00000   0.00000  -0.00001  -0.00001  -3.14150
   D30        0.00013  -0.00000   0.00000  -0.00001  -0.00001   0.00012
   D31        0.00005  -0.00000   0.00000  -0.00002  -0.00002   0.00003
   D32        3.14156  -0.00000   0.00000  -0.00001  -0.00001   3.14155
   D33       -3.14157  -0.00000   0.00000  -0.00001  -0.00001  -3.14158
   D34       -0.00006  -0.00000   0.00000  -0.00001  -0.00001  -0.00007
   D35       -0.00003   0.00000   0.00000   0.00001   0.00001  -0.00002
   D36        3.14154   0.00000   0.00000   0.00001   0.00001   3.14156
   D37       -3.14154   0.00000   0.00000   0.00001   0.00001  -3.14153
   D38        0.00003   0.00000   0.00000   0.00001   0.00001   0.00004
   D39       -0.00003   0.00000   0.00000   0.00000   0.00000  -0.00002
   D40        3.14124   0.00000   0.00000   0.00004   0.00004   3.14128
   D41        3.14158   0.00000   0.00000   0.00000   0.00000   3.14159
   D42       -0.00033   0.00000   0.00000   0.00004   0.00004  -0.00030
   D43       -0.00026   0.00000   0.00000  -0.00003  -0.00003  -0.00029
   D44        3.14114   0.00000   0.00000   0.00006   0.00006   3.14120
   D45       -3.14156  -0.00000   0.00000  -0.00006  -0.00006   3.14156
   D46       -0.00016   0.00000   0.00000   0.00002   0.00002  -0.00014
         Item               Value     Threshold  Converged?
 Maximum Force            0.000102     0.000450     YES
 RMS     Force            0.000020     0.000300     YES
 Maximum Displacement     0.003347     0.001800     NO 
 RMS     Displacement     0.000600     0.001200     YES
 Predicted change in Energy=-9.087914D-08
                           ----------------------------
                           ! Non-Optimized Parameters !
                           ! (Angstroms and Degrees)  !
 --------------------------                            --------------------------
 ! Name  Definition              Value          Derivative Info.                !
 --------------------------------------------------------------------------------
 ! R1    R(1,2)                  1.4444         -DE/DX =    0.0                 !
 ! R2    R(1,13)                 1.1017         -DE/DX =    0.0                 !
 ! R3    R(1,14)                 1.1016         -DE/DX =    0.0                 !
 ! R4    R(1,15)                 1.0992         -DE/DX =    0.0                 !
 ! R5    R(2,3)                  1.3939         -DE/DX =    0.0                 !
 ! R6    R(2,11)                 1.396          -DE/DX =    0.0                 !
 ! R7    R(3,4)                  1.2058         -DE/DX =    0.0001              !
 ! R8    R(3,5)                  1.4948         -DE/DX =    0.0                 !
 ! R9    R(5,6)                  1.3856         -DE/DX =    0.0                 !
 ! R10   R(5,10)                 1.3928         -DE/DX =    0.0                 !
 ! R11   R(6,7)                  1.4009         -DE/DX =    0.0                 !
 ! R12   R(6,16)                 1.0927         -DE/DX =    0.0                 !
 ! R13   R(7,8)                  1.3991         -DE/DX =    0.0                 !
 ! R14   R(7,17)                 1.0933         -DE/DX =    0.0                 !
 ! R15   R(8,9)                  1.4009         -DE/DX =    0.0                 !
 ! R16   R(8,18)                 1.0933         -DE/DX =    0.0                 !
 ! R17   R(9,10)                 1.3856         -DE/DX =    0.0                 !
 ! R18   R(9,19)                 1.0927         -DE/DX =    0.0                 !
 ! R19   R(10,11)                1.495          -DE/DX =    0.0                 !
 ! R20   R(11,12)                1.2056         -DE/DX =    0.0001              !
 ! A1    A(2,1,13)             110.5251         -DE/DX =    0.0                 !
 ! A2    A(2,1,14)             110.5083         -DE/DX =    0.0001              !
 ! A3    A(2,1,15)             107.7828         -DE/DX =   -0.0001              !
 ! A4    A(13,1,14)            109.0078         -DE/DX =    0.0                 !
 ! A5    A(13,1,15)            109.4916         -DE/DX =    0.0                 !
 ! A6    A(14,1,15)            109.5054         -DE/DX =    0.0                 !
 ! A7    A(1,2,3)              123.3437         -DE/DX =   -0.0001              !
 ! A8    A(1,2,11)             124.2718         -DE/DX =    0.0                 !
 ! A9    A(3,2,11)             112.3845         -DE/DX =    0.0                 !
 ! A10   A(2,3,4)              124.9845         -DE/DX =    0.0                 !
 ! A11   A(2,3,5)              105.8531         -DE/DX =    0.0                 !
 ! A12   A(4,3,5)              129.1625         -DE/DX =    0.0                 !
 ! A13   A(3,5,6)              130.4252         -DE/DX =    0.0                 !
 ! A14   A(3,5,10)             107.9609         -DE/DX =    0.0                 !
 ! A15   A(6,5,10)             121.614          -DE/DX =    0.0                 !
 ! A16   A(5,6,7)              117.2937         -DE/DX =    0.0                 !
 ! A17   A(5,6,16)             121.236          -DE/DX =    0.0                 !
 ! A18   A(7,6,16)             121.4704         -DE/DX =    0.0                 !
 ! A19   A(6,7,8)              121.0909         -DE/DX =    0.0                 !
 ! A20   A(6,7,17)             119.5536         -DE/DX =    0.0                 !
 ! A21   A(8,7,17)             119.3555         -DE/DX =    0.0                 !
 ! A22   A(7,8,9)              121.0834         -DE/DX =    0.0                 !
 ! A23   A(7,8,18)             119.3573         -DE/DX =    0.0                 !
 ! A24   A(9,8,18)             119.5593         -DE/DX =    0.0                 !
 ! A25   A(8,9,10)             117.287          -DE/DX =    0.0                 !
 ! A26   A(8,9,19)             121.4819         -DE/DX =    0.0                 !
 ! A27   A(10,9,19)            121.2311         -DE/DX =    0.0                 !
 ! A28   A(5,10,9)             121.6312         -DE/DX =    0.0                 !
 ! A29   A(5,10,11)            108.0999         -DE/DX =    0.0                 !
 ! A30   A(9,10,11)            130.2689         -DE/DX =    0.0                 !
 ! A31   A(2,11,10)            105.7017         -DE/DX =    0.0                 !
 ! A32   A(2,11,12)            125.4703         -DE/DX =    0.0001              !
 ! A33   A(10,11,12)           128.828          -DE/DX =    0.0                 !
 ! D1    D(13,1,2,3)           -60.5676         -DE/DX =    0.0                 !
 ! D2    D(13,1,2,11)          119.4183         -DE/DX =    0.0                 !
 ! D3    D(14,1,2,3)            60.186          -DE/DX =    0.0                 !
 ! D4    D(14,1,2,11)         -119.8282         -DE/DX =    0.0                 !
 ! D5    D(15,1,2,3)           179.8127         -DE/DX =    0.0                 !
 ! D6    D(15,1,2,11)           -0.2014         -DE/DX =    0.0                 !
 ! D7    D(1,2,3,4)             -0.0063         -DE/DX =    0.0                 !
 ! D8    D(1,2,3,5)            179.9886         -DE/DX =    0.0                 !
 ! D9    D(11,2,3,4)          -179.9937         -DE/DX =    0.0                 !
 ! D10   D(11,2,3,5)             0.0012         -DE/DX =    0.0                 !
 ! D11   D(1,2,11,10)         -179.9781         -DE/DX =    0.0                 !
 ! D12   D(1,2,11,12)            0.0277         -DE/DX =    0.0                 !
 ! D13   D(3,2,11,10)            0.0091         -DE/DX =    0.0                 !
 ! D14   D(3,2,11,12)         -179.9851         -DE/DX =    0.0                 !
 ! D15   D(2,3,5,6)            179.9898         -DE/DX =    0.0                 !
 ! D16   D(2,3,5,10)            -0.012          -DE/DX =    0.0                 !
 ! D17   D(4,3,5,6)             -0.0155         -DE/DX =    0.0                 !
 ! D18   D(4,3,5,10)           179.9827         -DE/DX =    0.0                 !
 ! D19   D(3,5,6,7)            179.9966         -DE/DX =    0.0                 !
 ! D20   D(3,5,6,16)            -0.0095         -DE/DX =    0.0                 !
 ! D21   D(10,5,6,7)            -0.0014         -DE/DX =    0.0                 !
 ! D22   D(10,5,6,16)          179.9925         -DE/DX =    0.0                 !
 ! D23   D(3,5,10,9)          -179.9959         -DE/DX =    0.0                 !
 ! D24   D(3,5,10,11)            0.0175         -DE/DX =    0.0                 !
 ! D25   D(6,5,10,9)             0.0025         -DE/DX =    0.0                 !
 ! D26   D(6,5,10,11)         -179.9841         -DE/DX =    0.0                 !
 ! D27   D(5,6,7,8)             -0.0007         -DE/DX =    0.0                 !
 ! D28   D(5,6,7,17)          -179.9993         -DE/DX =    0.0                 !
 ! D29   D(16,6,7,8)          -179.9947         -DE/DX =    0.0                 !
 ! D30   D(16,6,7,17)            0.0067         -DE/DX =    0.0                 !
 ! D31   D(6,7,8,9)              0.0019         -DE/DX =    0.0                 !
 ! D32   D(6,7,8,18)           179.9975         -DE/DX =    0.0                 !
 ! D33   D(17,7,8,9)          -179.9995         -DE/DX =    0.0                 !
 ! D34   D(17,7,8,18)           -0.0039         -DE/DX =    0.0                 !
 ! D35   D(7,8,9,10)            -0.0009         -DE/DX =    0.0                 !
 ! D36   D(7,8,9,19)           179.998          -DE/DX =    0.0                 !
 ! D37   D(18,8,9,10)         -179.9964         -DE/DX =    0.0                 !
 ! D38   D(18,8,9,19)            0.0025         -DE/DX =    0.0                 !
 ! D39   D(8,9,10,5)            -0.0013         -DE/DX =    0.0                 !
 ! D40   D(8,9,10,11)          179.9821         -DE/DX =    0.0                 !
 ! D41   D(19,9,10,5)          179.9998         -DE/DX =    0.0                 !
 ! D42   D(19,9,10,11)          -0.0169         -DE/DX =    0.0                 !
 ! D43   D(5,10,11,2)           -0.0166         -DE/DX =    0.0                 !
 ! D44   D(5,10,11,12)         179.9773         -DE/DX =    0.0                 !
 ! D45   D(9,10,11,2)          179.9983         -DE/DX =    0.0                 !
 ! D46   D(9,10,11,12)          -0.0078         -DE/DX =    0.0                 !
 --------------------------------------------------------------------------------
 Step   1 in ReCalcFC=50 IGetFC= 0 compute gradient.
 GradGradGradGradGradGradGradGradGradGradGradGradGradGradGradGradGradGrad

 Leave Link  103 at Wed Feb 28 21:01:56 2024, MaxMem=  2147483648 cpu:               1.2 elap:               0.1
 (Enter /software/gaussian-16RevA.03-el7-x86_64/g16/l9999.exe)

 ----------------------------------------------------------------------

 Electric dipole moment (input orientation):
 (Debye = 10**-18 statcoulomb cm , SI units = C m)
                  (au)            (Debye)         (10**-30 SI)
   Tot        0.112011D+01      0.284703D+01      0.949667D+01
   x          0.111472D+01      0.283333D+01      0.945097D+01
   y         -0.809412D-01     -0.205732D+00     -0.686248D+00
   z         -0.741295D-01     -0.188418D+00     -0.628496D+00

 Dipole polarizability, Alpha (input orientation).
 (esu units = cm**3 , SI units = C**2 m**2 J**-1)
 Alpha(0;0):
               (au)            (10**-24 esu)      (10**-40 SI)
   iso        0.124662D+03      0.184730D+02      0.205540D+02
   aniso      0.100957D+03      0.149603D+02      0.166455D+02
   xx         0.165071D+03      0.244609D+02      0.272165D+02
   yx         0.848213D+00      0.125692D+00      0.139851D+00
   yy         0.143699D+03      0.212939D+02      0.236927D+02
   zx        -0.459201D+01     -0.680466D+00     -0.757121D+00
   zy         0.247214D+02      0.366334D+01      0.407601D+01
   zz         0.652170D+02      0.966417D+01      0.107528D+02

 ----------------------------------------------------------------------

 Dipole orientation:
     6         -0.00778953          0.04569947         -6.05749253
     7         -0.00774609          0.03785101         -3.32788043
     6          0.43915052         -2.12063476         -1.88561357
     8          0.86851752         -4.19206194         -2.73242769
     6          0.26797870         -1.29610137          0.81069731
     6          0.55040126         -2.66374997          3.02559904
     6          0.27802161         -1.34902754          5.30718667
     6         -0.25741622          1.23987990          5.33561904
     6         -0.53882184          2.60222516          3.08324676
     6         -0.26517340          1.28112873          0.83906928
     6         -0.44909245          2.16876491         -1.83668794
     8         -0.88332368          4.26343412         -2.62036187
     1          1.85042548         -0.54299906         -6.78881146
     1         -1.46536624         -1.24783594         -6.78964236
     1         -0.41874438          1.98189031         -6.68745035
     1          0.96837768         -4.68559507          2.98974080
     1          0.48675018         -2.35982886          7.09697545
     1         -0.45903728          2.21264847          7.14712781
     1         -0.95711386          4.62431067          3.09110605

 Electric dipole moment (dipole orientation):
 (Debye = 10**-18 statcoulomb cm , SI units = C m)
                  (au)            (Debye)         (10**-30 SI)
   Tot        0.112011D+01      0.284703D+01      0.949667D+01
   x          0.000000D+00      0.000000D+00      0.000000D+00
   y          0.000000D+00      0.000000D+00      0.000000D+00
   z          0.112011D+01      0.284703D+01      0.949667D+01

 Dipole polarizability, Alpha (dipole orientation).
 (esu units = cm**3 , SI units = C**2 m**2 J**-1)
 Alpha(0;0):
               (au)            (10**-24 esu)      (10**-40 SI)
   iso        0.124662D+03      0.184730D+02      0.205540D+02
   aniso      0.100957D+03      0.149603D+02      0.166455D+02
   xx         0.616981D+02      0.914271D+01      0.101726D+02
   yx        -0.184571D+02     -0.273506D+01     -0.304317D+01
   yy         0.147047D+03      0.217901D+02      0.242448D+02
   zx        -0.207590D+00     -0.307617D-01     -0.342270D-01
   zy         0.785132D+00      0.116345D+00      0.129451D+00
   zz         0.165241D+03      0.244862D+02      0.272446D+02

 ----------------------------------------------------------------------
 1\1\GINC-MIDWAY2-0620\Freq\RwB97XD\def2SVPP\C9H7N1O2\ALESSANDRI\28-Feb
 -2024\0\\#P Geom=AllCheck Guess=TCheck SCRF=Check GenChk RwB97XD/def2S
 VPP Freq\\Cavity NMPHTH solvent\\0,1\C,-3.1879487414,0.2553652946,0.21
 7991128\N,-1.7507727539,0.1468583494,0.1220735037\C,-1.0935228691,-1.0
 259152844,-0.2463252061\O,-1.6376631669,-2.0660584106,-0.5219965676\C,
 0.3655267718,-0.7021118301,-0.2190796063\C,1.4671717219,-1.4949804124,
 -0.4976788051\C,2.7310367432,-0.9014963002,-0.3838653775\C,2.868681603
 1,0.4379261021,-0.0038849233\C,1.7470547892,1.2294782664,0.2752881959\
 C,0.5025906594,0.6312612008,0.1592526925\C,-0.864474782,1.1931756428,0
 .3837613196\O,-1.1778962417,2.3076997944,0.7199849509\H,-3.6566530558,
 0.0492733632,-0.757501453\H,-3.579502734,-0.4567192502,0.9617724542\H,
 -3.4276232553,1.2815658148,0.530513242\H,1.3524913945,-2.5405072068,-0
 .7938563065\H,3.6257093851,-1.4933325191,-0.595121432\H,3.8687846021,0
 .8723270165,0.0760515369\H,1.8470099301,2.2761893687,0.5726216537\\Ver
 sion=ES64L-G16RevA.03\HF=-551.8209029\RMSD=2.174e-09\RMSF=2.533e-05\Ze
 roPoint=0.1458685\Thermal=0.1553395\Dipole=1.1147171,-0.0809412,-0.074
 1295\DipoleDeriv=0.7624844,0.0074279,-0.020555,-0.0833432,0.0730636,-0
 .041864,-0.046894,-0.0451482,0.2176764,-1.4540922,-0.0938148,0.0244832
 ,-0.027266,-1.6983374,-0.4039915,0.0463848,-0.4011113,-0.4117426,1.783
 6598,0.1355847,-0.023422,0.1359188,2.2352636,0.5220079,-0.0238576,0.52
 25932,0.5564844,-1.0036829,-0.4996427,-0.1177597,-0.3738471,-1.4589421
 ,-0.2803587,-0.0821045,-0.2751941,-0.5054698,-0.5787265,-0.2258977,-0.
 0411356,-0.1969693,-0.0687282,0.0033084,-0.0324788,0.0040903,-0.045548
 ,-0.1293054,0.1154844,0.0355922,-0.0623007,0.1360105,0.0648348,-0.0161
 971,0.0576795,-0.0615228,0.0974296,-0.1164473,-0.0437586,-0.0538865,-0
 .0583798,0.0200623,-0.0250229,0.0231504,-0.1134088,0.1251308,0.0867077
 ,0.013826,0.0270279,-0.0809109,0.0112707,-0.0037475,0.0081985,-0.12023
 03,-0.124447,-0.0586787,-0.0145057,0.1176764,0.1367835,0.0557954,0.036
 4881,0.0635991,-0.0592306,-0.4779838,0.2851526,0.1015137,0.2641345,-0.
 1426614,-0.0405161,0.0965382,-0.0419101,-0.060106,1.778382,0.0659463,-
 0.0432833,0.0445466,2.2892883,0.5487668,-0.0520795,0.5483137,0.5428256
 ,-0.859184,0.3352395,0.1163451,0.2315138,-1.6167737,-0.3550171,0.08691
 31,-0.360755,-0.5328418,-0.0770473,0.004245,-0.0003346,-0.030701,0.109
 3244,-0.0342392,-0.0877478,-0.0188359,-0.0565426,-0.0686679,0.0084668,
 0.0066197,-0.068677,0.0346004,0.10018,0.0607894,0.0793314,0.0115529,0.
 0666122,-0.0359464,-0.0085686,0.0906337,0.0101992,-0.0362692,0.0285689
 ,-0.0310163,0.1090638,0.1197003,-0.034303,-0.0088934,0.0039024,-0.0167
 122,-0.0451566,0.0023316,-0.0435557,0.1267278,-0.0262705,0.0748482,0.0
 2932,0.0754458,0.0548736,-0.0290813,0.0296087,-0.0292213,0.134744,-0.0
 546684,-0.0603864,-0.0083255,-0.0615439,0.0774897,-0.0164603,-0.009101
 7,-0.016513,0.1398764,0.1206771,0.0060139,0.0028423,-0.0322651,-0.0154
 512,-0.0432722,-0.0083913,-0.0436951,0.127692\Polar=165.0706427,0.8482
 128,143.6985167,-4.5920121,24.7214178,65.217039\Quadrupole=9.5576144,-
 7.7982049,-1.7594095,-1.6837343,-0.9760981,-1.8086377\PG=C01 [X(C9H7N1
 O2)]\NImag=0\\0.51741009,0.01480463,0.62803388,0.00780210,0.00871739,0
 .59730917,-0.25171834,0.00413452,0.00942307,0.79455954,0.00748181,-0.1
 1030583,-0.01290382,-0.00346675,0.59332748,0.01039770,-0.01276989,-0.0
 7070656,-0.03207460,0.14041762,0.14897001,-0.02002261,0.03126741,0.009
 96225,-0.19907596,0.04544556,0.01915401,0.66282270,0.01874213,0.003136
 39,-0.00017010,0.06673534,-0.16050481,-0.03038087,0.23758868,0.9167327
 5,0.00634794,-0.00071726,0.00011962,0.02528565,-0.02940090,-0.07504857
 ,0.04785403,0.19416348,0.26043980,0.00038982,-0.00010448,-0.00014648,0
 .03191700,0.00271184,0.00025359,-0.25812900,-0.26686080,-0.06862403,0.
 24828946,-0.00978537,0.00213809,0.00193175,-0.01896312,-0.10310868,-0.
 03476033,-0.27405219,-0.58611617,-0.13552357,0.30914323,0.68971241,-0.
 00296829,0.00147123,-0.00253322,-0.00599925,-0.03574616,0.01015333,-0.
 07068262,-0.13584944,-0.10954171,0.07939585,0.17548271,0.08037471,0.00
 324458,0.00182576,0.00052133,-0.04782594,0.01901501,0.00836344,-0.1982
 4027,0.00587066,0.00723599,-0.01776337,-0.02906854,-0.00672803,0.72457
 444,-0.00105947,-0.00513260,-0.00235709,0.03335152,0.00074392,-0.00582
 426,-0.01938646,-0.10434947,-0.00708334,-0.04664312,-0.01029046,-0.006
 28228,-0.08837834,0.69184592,-0.00030923,-0.00248522,0.00250934,0.0125
 8505,-0.00521550,0.01379060,-0.00006983,-0.00822414,-0.07892089,-0.011
 79930,-0.00707655,0.01729841,-0.05214237,0.16309846,0.18914712,0.00010
 224,0.00150815,0.00047860,-0.00106195,-0.00588751,-0.00165091,-0.02273
 724,0.01329144,0.00489925,0.00310789,0.00124653,0.00018873,-0.27638940
 ,0.08486237,0.03395693,0.67979614,0.00052378,0.00115458,0.00008262,-0.
 00655512,0.00271712,0.00101080,0.00109353,0.01556319,0.00418255,-0.001
 36552,-0.00324964,-0.00060250,0.14228772,-0.21641968,-0.05011827,-0.00
 094585,0.73180043,0.00018680,0.00003809,0.00079520,-0.00183781,0.00098
 431,0.00062444,0.00139989,0.00362613,0.00184316,-0.00057606,-0.0007253
 4,-0.00109967,0.05053486,-0.04750104,-0.08078368,-0.02439825,0.1689253
 3,0.19552939,0.00036155,-0.00007811,-0.00005240,-0.00411975,0.00044341
 ,0.00028467,-0.00000722,0.00734973,0.00250439,0.00091863,-0.00111502,-
 0.00041154,-0.05876774,0.03807277,0.01416123,-0.30593908,-0.11866885,-
 0.02346709,0.73218504,0.00008171,-0.00066270,-0.00014669,-0.00115923,0
 .00218514,0.00091205,0.00387982,-0.00033208,-0.00268871,0.00042034,0.0
 0078210,0.00050916,-0.01359228,0.06685373,0.01680679,-0.04667357,-0.16
 836779,-0.02632865,-0.02792946,0.66303290,-0.00000257,-0.00013312,-0.0
 0023397,-0.00017822,0.00083174,-0.00051866,0.00149793,-0.00285195,0.00
 750718,0.00002996,0.00058209,-0.00089106,-0.00076356,0.01444693,0.0149
 4035,-0.00271672,-0.02308387,-0.07609648,-0.03456715,0.14976640,0.1928
 6792,0.00027012,-0.00052563,-0.00018437,-0.00369479,0.00086801,0.00039
 069,0.00005061,0.00194318,0.00050928,0.00047884,0.00055050,0.00014951,
 -0.01297521,0.02811961,0.00833907,0.02928379,-0.03290653,-0.01042725,-
 0.13837951,-0.05781121,-0.01362026,0.74509552,-0.00019259,0.00020790,0
 .00017826,0.00223758,0.00145771,0.00050172,0.00457234,-0.00421913,-0.0
 0108738,-0.00195726,-0.00051305,-0.00014508,0.02248524,-0.06168141,-0.
 01625113,-0.08483830,-0.01097480,-0.00180586,0.01645175,-0.32560006,-0
 .07435779,0.03483480,0.65304730,-0.00008211,0.00018656,-0.00029250,0.0
 0077873,0.00057274,-0.00053363,0.00127149,-0.00096531,-0.00150978,-0.0
 0057556,-0.00026191,0.00025119,0.00671566,-0.01650417,-0.01391024,-0.0
 2540310,-0.00414909,0.00860307,0.00779641,-0.07102222,-0.09115348,-0.0
 1703007,0.14396351,0.19039952,-0.00010151,0.00003218,0.00007941,0.0016
 0074,0.00558518,0.00152892,0.01003820,-0.00299276,-0.00102053,-0.00232
 726,-0.00135720,-0.00033362,0.01768755,-0.08284346,-0.02424856,-0.0748
 9713,0.00830643,0.00548204,0.05135008,0.07361940,0.01929436,-0.2687852
 1,0.05948696,0.02615084,0.68608629,-0.00029463,0.00132254,0.00005931,0
 .00689060,0.00059580,-0.00013697,0.00210764,-0.00715157,-0.00406582,-0
 .00250941,0.00019830,0.00048124,-0.03130821,-0.01250844,-0.00503386,0.
 00455392,0.00002475,0.00178715,0.02174424,-0.02871502,-0.01175493,0.13
 146513,-0.19839528,-0.04307519,0.03146235,0.72633938,-0.00002840,0.000
 04430,0.00116620,0.00191757,-0.00008023,-0.00013491,0.00043710,-0.0038
 3516,0.00549693,-0.00066444,0.00043309,-0.00092975,-0.00937366,-0.0027
 0021,0.00956105,0.00440465,0.00161654,-0.00663777,0.00432051,-0.014129
 23,0.00436383,0.04691654,-0.03981820,-0.08323045,-0.01538954,0.1659427
 4,0.19438783,0.00289143,-0.00448115,-0.00124082,-0.05735860,-0.0098109
 2,0.00045064,-0.01959662,-0.02896676,-0.00745214,-0.00650871,-0.002102
 40,-0.00024912,-0.11667215,0.01019459,0.00523792,0.03931396,0.02178698
 ,0.00492464,-0.02503639,-0.03099745,-0.00821097,-0.05882138,0.03709126
 ,0.01386531,-0.32058247,-0.13070748,-0.02605995,0.76231497,-0.00055950
 ,-0.00374974,-0.00225677,-0.02372001,0.00765951,-0.00097024,-0.0248125
 0,-0.01446020,-0.00322527,0.00343908,0.00384530,0.00047868,-0.05364849
 ,-0.31967183,-0.07021621,0.07329757,-0.02989518,-0.01478561,-0.0364969
 0,-0.05155777,-0.01066156,-0.01473619,0.06693546,0.01688563,-0.0732322
 6,-0.18005136,-0.02984434,0.09743353,0.66144973,-0.00009424,-0.0020810
 2,0.00355675,-0.00359302,-0.00159541,0.01436683,-0.00628955,-0.0030064
 7,0.00001020,0.00135164,0.00071384,0.00178581,-0.01317635,-0.07310528,
 -0.08828629,0.01980137,-0.01242569,0.00529881,-0.00979709,-0.01090808,
 -0.01156017,-0.00109307,0.01453118,0.01496669,-0.00947099,-0.02726488,
 -0.07237968,-0.00032752,0.14582686,0.18279040,-0.02871279,-0.02174561,
 -0.00514099,-0.21769216,-0.03755590,-0.00357542,0.05552643,-0.04067812
 ,-0.01474319,-0.00505073,0.02665409,0.00826515,-0.00874413,0.02284988,
 0.00703664,0.00957420,-0.00545874,-0.00169725,-0.00136980,-0.00514383,
 -0.00148118,-0.00237701,-0.00401947,-0.00065869,-0.02446998,0.00627568
 ,0.00295702,-0.19224541,0.03342703,0.01500450,0.57577258,-0.01607423,0
 .01561124,0.00643880,-0.05635018,-0.14288583,-0.02159387,0.01293131,-0
 .08495736,-0.02212644,0.00490278,0.02071460,0.00371473,0.02772086,-0.0
 2277614,-0.00804831,-0.00039478,-0.00674145,-0.00384972,-0.00258605,-0
 .00304662,-0.00041403,-0.00735542,0.00168800,-0.00161171,-0.00574887,0
 .01661005,0.00481981,0.00848896,-0.10933338,-0.00967302,-0.15494284,0.
 98185467,-0.00357145,0.00669079,-0.00198166,-0.00900099,-0.02242833,-0
 .06536948,0.00076165,-0.01969825,-0.01638007,0.00197857,0.00271508,0.0
 0782580,0.00849117,-0.00786248,-0.00188328,-0.00024989,-0.00361058,0.0
 0558250,-0.00074116,-0.00030078,-0.00123893,-0.00162745,-0.00175346,0.
 00797422,-0.00052072,0.00426669,0.00212914,0.00779867,-0.01078057,-0.0
 8071882,-0.06183778,0.23148811,0.27529101,0.00054523,0.00168321,0.0004
 3490,0.02838595,-0.03080625,-0.00931136,-0.01084388,0.00153775,0.00127
 426,0.00246901,-0.00350206,-0.00120642,-0.00631844,-0.00146644,-0.0000
 6446,-0.00150410,0.00285087,0.00083728,0.00069706,0.00173371,0.0004858
 8,0.00108374,-0.00034424,-0.00020147,0.00286472,0.00029974,-0.00009312
 ,-0.00245209,0.04413474,0.01372334,-0.16244819,0.17336802,0.05412795,0
 .14472307,0.01056334,-0.00250845,-0.00080614,-0.01094452,-0.09955764,-
 0.03378047,-0.02076668,0.02562427,0.00627365,-0.00009848,-0.01518285,-
 0.00387635,0.00401436,0.00384130,0.00048075,0.00169772,-0.00051018,0.0
 0008423,-0.00079599,-0.00072506,-0.00026615,0.00110803,0.00064042,0.00
 044045,-0.00250613,-0.00296792,-0.00049276,0.02629629,-0.02339647,-0.0
 1342259,0.18107842,-0.66172072,-0.17834694,-0.18624359,0.77461039,0.00
 296915,-0.00040567,-0.00166797,-0.00357411,-0.03290127,0.00987470,-0.0
 0517979,0.00525940,0.00893216,-0.00022647,-0.00371770,-0.00283292,0.00
 152120,0.00073780,0.00167313,0.00051300,0.00002104,-0.00105232,-0.0002
 4555,-0.00038022,0.00021211,0.00022087,0.00049900,-0.00091217,-0.00088
 505,-0.00061061,-0.00105646,0.00856757,-0.01424439,0.01445880,0.056352
 41,-0.17794647,-0.12733493,-0.05890862,0.22272487,0.10039691,-0.089067
 75,-0.01962148,-0.09293174,-0.02996434,-0.00855751,-0.02933709,0.00134
 868,-0.00494755,-0.00164950,0.00095418,0.00194947,0.00045390,-0.000722
 13,-0.00016313,0.00030999,0.00033113,-0.00018403,0.00004750,-0.0002582
 7,-0.00021160,-0.00007068,-0.00026909,0.00025021,0.00000495,0.00027163
 ,0.00029717,0.00035312,-0.00138128,-0.00092228,0.00077350,-0.00028866,
 0.00718230,-0.00086236,0.00080115,-0.00178959,-0.00072006,0.10885464,-
 0.02188605,-0.06092811,-0.04698030,0.00261399,0.00097343,0.00331350,0.
 00108222,0.00088973,0.00082297,-0.00095690,0.00004879,-0.00010717,0.00
 011356,0.00005681,-0.00027302,-0.00022442,0.00002503,-0.00001977,0.000
 10918,0.00014271,0.00005531,0.00008843,-0.00016031,-0.00005239,-0.0002
 2646,0.00000496,0.00001255,0.00020400,0.00002524,-0.00012922,-0.000233
 69,-0.00097850,-0.00071726,-0.00076303,0.00030580,0.00052871,0.0235061
 8,0.05478688,-0.09937511,-0.04671522,-0.27437973,0.00053609,0.00188425
 ,0.01164534,0.00024739,-0.00171001,0.00040559,0.00047508,0.00066183,-0
 .00007081,-0.00007438,0.00029520,-0.00042321,-0.00003850,-0.00005838,-
 0.00002423,-0.00000509,0.00002283,0.00002078,0.00002061,-0.00000618,0.
 00001890,0.00001521,-0.00000193,-0.00001935,-0.00002191,0.00022086,-0.
 00023544,0.00138315,0.00044819,-0.00009652,-0.00034075,-0.00010808,0.0
 0002737,0.10653237,0.05012639,0.28277197,-0.07536328,-0.05498726,0.056
 97569,-0.02741236,-0.02436710,0.02301874,0.00132400,-0.00491149,-0.001
 26862,0.00086488,0.00191979,0.00055974,-0.00072675,-0.00000073,-0.0003
 1369,0.00031672,-0.00011263,-0.00016205,-0.00025052,-0.00021925,-0.000
 02984,-0.00025952,0.00020148,0.00015013,0.00023734,0.00044780,-0.00016
 189,-0.00145135,-0.00041929,-0.00105111,-0.00023641,0.00551639,0.00455
 160,0.00082867,-0.00182916,-0.00041000,0.00564762,0.00923938,-0.007739
 22,0.09355542,-0.06039048,-0.16932790,0.12377766,0.00112125,0.00588182
 ,-0.00625610,0.00101970,0.00029024,-0.00096789,-0.00050704,0.00025957,
 0.00039257,0.00007777,-0.00006786,0.00048026,-0.00020127,-0.00003389,0
 .00003197,0.00008215,0.00014093,0.00001460,0.00007900,-0.00012994,-0.0
 0004955,-0.00017784,0.00000833,0.00001393,0.00014997,-0.00001051,0.000
 23523,0.00061011,-0.00070180,0.00030123,-0.00085550,0.00034274,-0.0002
 1872,0.00311065,0.00552743,-0.00585348,0.06535490,0.17083580,0.0612378
 8,0.12315367,-0.17981241,0.00381690,-0.00319502,0.00414461,0.00032766,
 0.00211259,0.00103382,-0.00098465,-0.00063059,-0.00026115,0.00015444,-
 0.00007456,-0.00027880,-0.00011503,0.00006428,0.00004527,0.00008409,0.
 00007562,0.00001787,0.00005297,-0.00010917,-0.00002148,-0.00015772,-0.
 00002287,0.00000863,0.00022842,-0.00004297,-0.00011763,-0.00126040,-0.
 00141241,-0.00050338,-0.00022521,0.00049771,-0.00003834,0.00930339,0.0
 1873456,-0.01543144,-0.06754280,-0.13229529,0.18225628,-0.06047470,0.0
 4626497,0.01402489,-0.01546709,0.03874743,0.01198566,-0.00534077,-0.00
 447100,-0.00102685,0.00144702,0.00022166,0.00000536,-0.00087895,0.0017
 5271,0.00055247,-0.00016837,-0.00051593,-0.00014342,-0.00017526,0.0000
 0507,0.00000889,-0.00005711,0.00008741,0.00002761,0.00007418,-0.000150
 04,-0.00004863,0.00025542,-0.00007129,-0.00003129,-0.00004915,0.004699
 84,0.00144213,0.00187054,-0.00181593,-0.00064725,0.00382580,-0.0126607
 5,-0.00160353,0.00300621,-0.00946164,-0.00493199,0.07219652,0.05805437
 ,-0.29921270,-0.07564487,0.00396827,0.00037182,0.00038781,-0.00086211,
 0.00096533,0.00033747,0.00007050,-0.00002397,-0.00005768,0.00022412,-0
 .00008600,-0.00011659,0.00002655,-0.00001410,-0.00000915,0.00000206,-0
 .00002795,0.00000070,0.00002392,0.00002852,0.00000674,0.00001035,-0.00
 009254,-0.00001539,0.00019483,-0.00003942,-0.00004741,-0.00172611,-0.0
 0221200,-0.00097688,-0.00161355,0.00066251,0.00058521,0.00006533,-0.00
 072364,0.00079177,0.00414075,-0.01301117,-0.00685676,-0.06259660,0.313
 40881,0.01750901,-0.07507422,-0.07382111,0.00179610,-0.00117216,-0.001
 91287,-0.00001887,0.00053161,0.00005974,-0.00004795,-0.00006917,0.0001
 4291,0.00011791,-0.00018395,0.00021889,0.00001418,0.00001498,0.0000186
 6,0.00000798,0.00000162,-0.00003022,0.00001025,0.00000249,0.00000225,-
 0.00000361,-0.00000824,-0.00004276,0.00005004,-0.00002773,0.00006190,-
 0.00042456,-0.00129531,0.00112971,-0.00060157,0.00059000,-0.00093763,0
 .00779707,-0.02530634,-0.00419730,-0.00660708,0.02037839,0.00896546,-0
 .01960739,0.08162011,0.07032386,-0.00003152,-0.00007699,-0.00001524,0.
 00013879,-0.00067989,-0.00019105,0.00073743,0.00083173,-0.00000189,0.0
 0037310,-0.00094078,-0.00026428,0.00910200,0.02436953,0.00678035,-0.06
 296279,-0.02748810,-0.00695302,0.00297494,-0.02722867,-0.00775522,-0.0
 0463439,-0.00142635,0.00012796,-0.00091790,0.00002758,0.00001754,-0.00
 415861,0.00165931,0.00103085,0.00128303,0.00132869,0.00034964,-0.00074
 570,0.00024428,0.00008726,-0.00001106,0.00000776,-0.00000457,-0.000013
 16,0.00000635,0.00000914,0.00003103,-0.00000023,-0.00000118,0.05742719
 ,-0.00011231,0.00006171,-0.00001562,0.00036144,0.00017274,-0.00004771,
 -0.00173407,-0.00115346,0.00108266,0.00074645,0.00095735,0.00010748,-0
 .00330241,-0.01113880,-0.00411006,-0.02869852,-0.32232612,-0.07982522,
 0.00217089,-0.00564133,-0.00310582,-0.00190211,0.00142897,-0.00160855,
 0.00005175,0.00048651,0.00033606,0.00277585,0.00104977,-0.00215008,-0.
 00103453,-0.00047738,-0.00024313,0.00050353,-0.00031027,-0.00000042,0.
 00002826,0.00000890,0.00000668,0.00003878,0.00000076,-0.00000247,0.000
 00447,-0.00000842,-0.00000464,0.02990850,0.33716099,-0.00002483,-0.000
 01604,0.00012833,0.00011260,0.00000316,0.00027598,-0.00075140,0.000953
 27,-0.00432014,0.00022579,0.00019154,0.00051519,-0.00119643,-0.0053689
 6,0.00213695,-0.00729453,-0.07988629,-0.06359429,0.00070465,-0.0017630
 0,0.00423231,-0.00000459,-0.00163019,0.00683764,0.00002590,0.00033730,
 -0.00059129,0.00135577,-0.00210377,0.00740427,-0.00033393,-0.00034940,
 0.00044364,0.00016048,0.00001363,-0.00039428,0.00002884,-0.00001440,-0
 .00001126,-0.00000880,0.00002017,-0.00000166,-0.00000003,-0.00000479,0
 .00000596,0.00725775,0.08805423,0.05205992,0.00014815,0.00012309,0.000
 02308,-0.00071487,0.00021343,0.00009653,0.00084760,0.00125077,0.000334
 56,-0.00037632,-0.00041805,-0.00010053,-0.00417385,-0.00327090,-0.0004
 4367,-0.01660368,0.01715245,0.00591418,-0.25224524,0.12689878,0.046191
 39,0.00671304,-0.00491498,-0.00149001,0.00100831,-0.00131158,-0.000093
 50,0.00019993,-0.00078667,-0.00026117,0.00000597,-0.00034577,-0.000146
 42,-0.00010642,0.00027839,0.00009083,-0.00002897,-0.00000647,-0.000006
 18,-0.00002597,-0.00001137,0.00000344,-0.00005559,0.00000838,0.0000047
 0,0.00130781,0.00009666,-0.00021708,0.26326722,-0.00000032,0.00007144,
 0.00006199,-0.00016492,0.00006785,0.00001363,-0.00034590,0.00062021,0.
 00009876,0.00005086,-0.00004842,-0.00003344,-0.00298883,0.00005616,-0.
 00182847,-0.01299273,0.01113424,0.00240142,0.12682150,-0.14278546,-0.0
 3508409,0.02550151,-0.01035281,-0.00553376,-0.00150393,-0.00410673,-0.
 00320925,-0.00091919,-0.00067979,0.00002494,-0.00023652,-0.00010275,0.
 00026679,0.00010912,0.00000510,-0.00003804,0.00001213,-0.00000370,-0.0
 0000364,0.00000072,0.00000455,0.00000103,-0.00002717,-0.00000002,0.000
 00237,0.00066833,0.00026563,0.00126415,-0.13503980,0.14563119,-0.00001
 348,0.00005595,-0.00012651,-0.00001271,-0.00000387,0.00004570,-0.00012
 391,0.00002686,0.00034190,0.00003472,-0.00001209,0.00005558,-0.0003547
 7,-0.00181463,0.00635579,-0.00277434,0.00103953,0.00527126,0.04616936,
 -0.03508630,-0.05335886,0.00726719,-0.00415977,0.00331728,-0.00015009,
 -0.00321702,0.00633988,-0.00030464,0.00002252,-0.00060825,-0.00011396,
 0.00027244,-0.00090566,0.00004190,-0.00004506,0.00010139,-0.00001672,0
 .00001432,0.00000894,0.00002308,-0.00001557,-0.00000158,-0.00000500,0.
 00000085,-0.00000352,-0.00005771,0.00128419,-0.00382538,-0.04966767,0.
 04026069,0.04117598,0.00012829,-0.00010728,-0.00004622,-0.00070812,-0.
 00008263,0.00001322,0.00013505,0.00034499,0.00004832,-0.00018334,-0.00
 024924,-0.00005796,0.00050479,0.00058493,0.00011661,0.00131700,-0.0000
 4340,0.00025636,0.00187177,0.00224934,0.00078651,-0.30034219,-0.104565
 81,-0.01840715,-0.01646745,-0.01225674,-0.00257515,-0.00281452,0.00348
 808,0.00144620,0.00064840,-0.00123772,-0.00037358,-0.00029621,0.000452
 35,0.00014803,-0.00005586,-0.00000584,-0.00000162,-0.00005121,-0.00000
 830,0.00000261,0.00001078,0.00001647,0.00000478,0.00000547,0.00010622,
 0.00002336,0.00061815,-0.00005864,-0.00024566,0.31452869,-0.00000067,0
 .00007760,0.00008594,0.00029324,0.00006457,-0.00002420,0.00024155,-0.0
 0019544,0.00021688,-0.00008377,0.00006417,-0.00001508,0.00071008,-0.00
 093518,-0.00011457,0.00015029,-0.00434495,-0.00334936,-0.02812802,-0.0
 0643896,-0.00197891,-0.10453682,-0.10403895,-0.01335695,0.01790143,0.0
 1102483,0.00098615,0.00318416,-0.00102663,-0.00242175,0.00036243,0.000
 75979,0.00010807,-0.00001462,-0.00010696,-0.00004690,0.00003292,-0.000
 00198,-0.00000453,0.00000641,0.00000221,-0.00000146,-0.00001312,-0.000
 00357,-0.00000385,-0.00121789,-0.00036278,-0.00000655,0.00029631,0.000
 75504,0.00147592,0.11144579,0.10430452,-0.00001538,0.00009115,-0.00019
 294,0.00011906,-0.00000729,0.00009512,0.00002135,0.00021390,-0.0009212
 2,-0.00001050,-0.00000835,0.00012696,0.00015291,-0.00010932,-0.0006906
 4,0.00031337,-0.00334446,0.00627597,-0.00798389,-0.00335759,0.00423416
 ,-0.01838031,-0.01334658,-0.04415477,0.00611309,0.00233846,0.00523704,
 0.00135812,-0.00243223,0.00610851,0.00009037,0.00017869,0.00037538,0.0
 0001143,-0.00006681,0.00003575,-0.00003824,0.00000575,0.00001096,0.000
 05485,-0.00000976,0.00000219,-0.00000363,-0.00000511,0.00001050,-0.000
 35709,-0.00006454,-0.00015701,-0.00015409,0.00149080,-0.00398667,0.019
 12422,0.01709774,0.03138824,0.00000098,0.00008405,0.00003294,0.0002122
 4,0.00070276,0.00020262,0.00116289,-0.00165791,-0.00050690,-0.00087110
 ,-0.00013130,-0.00001659,-0.00491502,-0.00094584,0.00031484,-0.0008793
 4,0.00024295,0.00007864,-0.00381031,0.00207839,0.00110143,0.00761975,0
 .02456000,0.00695907,-0.06267013,-0.02703376,-0.00683578,0.00410387,-0
 .02747395,-0.00794603,0.00087382,-0.00110329,-0.00056958,0.00044592,0.
 00105689,0.00032658,0.00001260,-0.00000108,0.00000097,0.00000967,0.000
 00159,-0.00000314,-0.00005050,-0.00000732,0.00000018,0.00009435,-0.000
 00885,-0.00006352,0.00021474,0.00111378,0.00030442,0.00115050,-0.00062
 971,-0.00041567,0.05729505,0.00010386,0.00001268,-0.00005232,-0.000383
 89,0.00014391,-0.00001222,0.00073016,-0.00038242,-0.00029183,-0.000398
 28,-0.00018744,0.00007740,-0.00205801,0.00166004,-0.00175437,0.0002224
 2,0.00045842,0.00032109,0.00255072,0.00076329,-0.00200555,-0.00480820,
 -0.00936854,-0.00386483,-0.02586712,-0.32262660,-0.08008040,0.00018491
 ,-0.00709272,-0.00310114,0.00151771,-0.00130441,0.00088191,-0.00061141
 ,0.00095398,0.00015438,-0.00003747,0.00000051,0.00000345,-0.00001948,-
 0.00001130,0.00000411,-0.00000009,0.00001850,0.00000403,0.00000686,-0.
 00017478,0.00030594,-0.00021269,-0.00053172,-0.00009894,-0.00007256,0.
 00040268,0.00133555,0.02915258,0.33726593,0.00003450,-0.00005148,0.000
 16399,-0.00010013,-0.00004386,0.00023800,0.00018123,-0.00019556,0.0004
 5225,-0.00008975,0.00007367,-0.00036960,0.00000064,-0.00180683,0.00754
 539,0.00007118,0.00032148,-0.00059931,0.00123767,-0.00198299,0.0066853
 1,-0.00150962,-0.00520536,0.00334774,-0.00650937,-0.08002057,-0.063668
 10,0.00002996,-0.00184288,0.00309730,0.00017810,0.00095992,-0.00433867
 ,-0.00014444,0.00010607,0.00051472,0.00002175,-0.00001417,-0.00002055,
 -0.00003872,0.00002036,-0.00000626,0.00000200,0.00000397,0.00000557,-0
 .00005925,0.00030698,-0.00114488,-0.00007840,-0.00015587,-0.00019729,-
 0.00026288,0.00135339,-0.00379753,0.00703551,0.08817374,0.05209190\\-0
 .00000180,0.00011194,0.00002876,-0.00003343,-0.00004145,0.00000803,0.0
 0001874,-0.00006658,-0.00001948,0.00003000,0.00004957,0.00001352,-0.00
 001211,-0.00000798,-0.00000472,0.00000416,-0.00000196,-0.00000036,-0.0
 0000097,0.00002011,0.00000700,-0.00000469,-0.00002309,-0.00000595,0.00
 000589,-0.00000428,-0.00000146,-0.00000451,0.00000322,0.00000113,0.000
 01166,0.00002346,-0.00000285,-0.00002241,-0.00005757,-0.00001117,0.000
 02098,-0.00000205,-0.00000842,0.00003738,-0.00000865,-0.00000428,-0.00
 005719,0.00001185,0.00000037,-0.00000159,-0.00000872,-0.00000153,0.000
 00326,-0.00000346,-0.00000016,0.00000490,-0.00000119,-0.00000022,0.000
 00173,0.00000683,0.00000180\\\@


 MY DESCRIPTION OF EXPERIENCE IS NOT WHAT HAPPENS
 TO A MAN.  EXPERIENCE IS WHAT A MAN DOES WITH WHAT
 HAPPENS TO HIM.
                         - CHUCK KNOX, SEATTLE SEAHAWKS, 1985
 Job cpu time:       0 days  0 hours 22 minutes  4.5 seconds.
 Elapsed time:       0 days  0 hours  0 minutes 48.2 seconds.
 File lengths (MBytes):  RWF=    408 Int=      0 D2E=      0 Chk=     20 Scr=      8
 Normal termination of Gaussian 16 at Wed Feb 28 21:01:56 2024.
