/tmp/slurmd/job36164474/slurm_script: line 63: warning: here-document at line 32 delimited by end-of-file (wanted `EOF')
 Entering Gaussian System, Link 0=g16
 Initial command:
 /software/gaussian-16RevA.03-el7-x86_64/g16/l1.exe "/project/depablo/riccardo/REDX/DMREF-Battery/monomers/QC/NMPHTH/Gau-27685.inp" -scrdir="/project/depablo/riccardo/REDX/DMREF-Battery/monomers/QC/NMPHTH/"
 Entering Link 1 = /software/gaussian-16RevA.03-el7-x86_64/g16/l1.exe PID=     27687.
  
 Copyright (c) 1988,1990,1992,1993,1995,1998,2003,2009,2016,
            Gaussian, Inc.  All Rights Reserved.
  
 This is part of the Gaussian(R) 16 program.  It is based on
 the Gaussian(R) 09 system (copyright 2009, Gaussian, Inc.),
 the Gaussian(R) 03 system (copyright 2003, Gaussian, Inc.),
 the Gaussian(R) 98 system (copyright 1998, Gaussian, Inc.),
 the Gaussian(R) 94 system (copyright 1995, Gaussian, Inc.),
 the Gaussian 92(TM) system (copyright 1992, Gaussian, Inc.),
 the Gaussian 90(TM) system (copyright 1990, Gaussian, Inc.),
 the Gaussian 88(TM) system (copyright 1988, Gaussian, Inc.),
 the Gaussian 86(TM) system (copyright 1986, Carnegie Mellon
 University), and the Gaussian 82(TM) system (copyright 1983,
 Carnegie Mellon University). Gaussian is a federally registered
 trademark of Gaussian, Inc.
  
 This software contains proprietary and confidential information,
 including trade secrets, belonging to Gaussian, Inc.
  
 This software is provided under written license and may be
 used, copied, transmitted, or stored only in accord with that
 written license.
  
 The following legend is applicable only to US Government
 contracts under FAR:
  
                    RESTRICTED RIGHTS LEGEND
  
 Use, reproduction and disclosure by the US Government is
 subject to restrictions as set forth in subparagraphs (a)
 and (c) of the Commercial Computer Software - Restricted
 Rights clause in FAR 52.227-19.
  
 Gaussian, Inc.
 340 Quinnipiac St., Bldg. 40, Wallingford CT 06492
  
  
 ---------------------------------------------------------------
 Warning -- This program may not be used in any manner that
 competes with the business of Gaussian, Inc. or will provide
 assistance to any competitor of Gaussian, Inc.  The licensee
 of this program is prohibited from giving any competitor of
 Gaussian, Inc. access to this program.  By using this program,
 the user acknowledges that Gaussian, Inc. is engaged in the
 business of creating and licensing software in the field of
 computational chemistry and represents and warrants to the
 licensee that it is not a competitor of Gaussian, Inc. and that
 it will not use this program in any manner prohibited above.
 ---------------------------------------------------------------
  

 Cite this work as:
 Gaussian 16, Revision A.03,
 M. J. Frisch, G. W. Trucks, H. B. Schlegel, G. E. Scuseria, 
 M. A. Robb, J. R. Cheeseman, G. Scalmani, V. Barone, 
 G. A. Petersson, H. Nakatsuji, X. Li, M. Caricato, A. V. Marenich, 
 J. Bloino, B. G. Janesko, R. Gomperts, B. Mennucci, H. P. Hratchian, 
 J. V. Ortiz, A. F. Izmaylov, J. L. Sonnenberg, D. Williams-Young, 
 F. Ding, F. Lipparini, F. Egidi, J. Goings, B. Peng, A. Petrone, 
 T. Henderson, D. Ranasinghe, V. G. Zakrzewski, J. Gao, N. Rega, 
 G. Zheng, W. Liang, M. Hada, M. Ehara, K. Toyota, R. Fukuda, 
 J. Hasegawa, M. Ishida, T. Nakajima, Y. Honda, O. Kitao, H. Nakai, 
 T. Vreven, K. Throssell, J. A. Montgomery, Jr., J. E. Peralta, 
 F. Ogliaro, M. J. Bearpark, J. J. Heyd, E. N. Brothers, K. N. Kudin, 
 V. N. Staroverov, T. A. Keith, R. Kobayashi, J. Normand, 
 K. Raghavachari, A. P. Rendell, J. C. Burant, S. S. Iyengar, 
 J. Tomasi, M. Cossi, J. M. Millam, M. Klene, C. Adamo, R. Cammi, 
 J. W. Ochterski, R. L. Martin, K. Morokuma, O. Farkas, 
 J. B. Foresman, and D. J. Fox, Gaussian, Inc., Wallingford CT, 2016.
 
 ******************************************
 Gaussian 16:  ES64L-G16RevA.03 25-Dec-2016
                28-Feb-2024 
 ******************************************
 %nprocshared=28
 Will use up to   28 processors via shared memory.
 %mem=16GB
 %Chk=NMPHTH-cavity-in-DMF-wB97XD.chk
 ----------------------------------------------------------------------
 #P wB97XD/Def2SVPP opt=(MaxCycles=500, RecalcFC=50) freq scrf=(pcm,sol
 vent=n,n-DiMethylFormamide) nosymm int(grid=ultrafine) scf=(xqc,tight)
 ----------------------------------------------------------------------
 1/6=500,10=4,18=20,19=15,26=6,38=1,71=50/1,3;
 2/9=110,12=2,15=1,17=6,18=5,40=1/2;
 3/5=43,7=202,11=2,25=1,30=1,70=2201,71=2,72=148,74=-58,75=-5,140=1/1,2,3;
 4//1;
 5/5=2,8=3,13=1,32=2,38=5,53=148/2,8;
 8/6=4,10=90,11=11/1;
 11/6=1,8=1,9=11,15=111,16=1,31=1/1,2,10;
 10/6=1,31=1/2;
 6/7=2,8=2,9=2,10=2,28=1/1;
 7/10=1,25=1,30=1/1,2,3,16;
 1/6=500,10=4,18=20,19=15,26=6,71=50/3(3);
 2/9=110,15=1/2;
 7/9=1,25=1,30=1,44=-1/16;
 99//99;
 2/9=110,15=1/2;
 3/5=43,7=202,11=2,25=1,30=1,70=2205,71=2,72=148,74=-58,75=-5,140=1/1,2,3;
 4/5=5,16=3,69=1/1;
 5/5=2,8=3,13=1,32=2,38=5,53=148/2,8;
 8/6=4,10=90,11=11/1;
 11/6=1,8=1,9=11,15=111,16=1,31=1/1,2,10;
 10/6=1,31=1/2;
 7/10=1,25=1,30=1/1,2,3,16;
 1/6=500,18=20,19=15,26=6,71=50/3(-8);
 2/9=110,15=1/2;
 6/7=2,8=2,9=2,10=2,19=2,28=1/1;
 7/9=1,25=1,30=1,44=-1/16;
 99/9=1/99;
 Leave Link    1 at Wed Feb 28 19:48:16 2024, MaxMem=  2147483648 cpu:               6.5 elap:               0.2
 (Enter /software/gaussian-16RevA.03-el7-x86_64/g16/l101.exe)
 ---------------------
 Cavity NMPHTH solvent
 ---------------------
 Symbolic Z-matrix:
 Charge =  0 Multiplicity = 1
 C                    -3.16632   0.26561   0.22002 
 N                    -1.73218   0.15651   0.1236 
 C                    -1.087    -0.99452  -0.23796 
 O                    -1.55429  -2.07856  -0.52983 
 C                     0.34292  -0.69155  -0.21521 
 C                     1.43281  -1.49213  -0.49571 
 C                     2.69896  -0.9084   -0.38447 
 C                     2.84249   0.44179  -0.0011 
 C                     1.72234   1.23167   0.27768 
 C                     0.48345   0.63244   0.16073 
 C                    -0.85676   1.17564   0.37825 
 O                    -1.08153   2.32101   0.71914 
 H                    -3.60391   0.02348  -0.75304 
 H                    -3.52693  -0.46758   0.94759 
 H                    -3.46497   1.27176   0.52406 
 H                     1.3073   -2.52922  -0.78948 
 H                     3.58673  -1.50214  -0.59609 
 H                     3.83919   0.87279   0.07824 
 H                     1.8177    2.27138   0.57358 
 
 ITRead=  0  0  0  0  0  0  0  0  0  0  0  0  0  0  0  0  0  0  0
 MicOpt= -1 -1 -1 -1 -1 -1 -1 -1 -1 -1 -1 -1 -1 -1 -1 -1 -1 -1 -1
 NAtoms=     19 NQM=       19 NQMF=       0 NMMI=      0 NMMIF=      0
                NMic=       0 NMicF=      0.
                    Isotopes and Nuclear Properties:
 (Nuclear quadrupole moments (NQMom) in fm**2, nuclear magnetic moments (NMagM)
  in nuclear magnetons)

  Atom         1           2           3           4           5           6           7           8           9          10
 IAtWgt=          12          14          12          16          12          12          12          12          12          12
 AtmWgt=  12.0000000  14.0030740  12.0000000  15.9949146  12.0000000  12.0000000  12.0000000  12.0000000  12.0000000  12.0000000
 NucSpn=           0           2           0           0           0           0           0           0           0           0
 AtZEff=  -0.0000000  -0.0000000  -0.0000000  -0.0000000  -0.0000000  -0.0000000  -0.0000000  -0.0000000  -0.0000000  -0.0000000
 NQMom=    0.0000000   2.0440000   0.0000000   0.0000000   0.0000000   0.0000000   0.0000000   0.0000000   0.0000000   0.0000000
 NMagM=    0.0000000   0.4037610   0.0000000   0.0000000   0.0000000   0.0000000   0.0000000   0.0000000   0.0000000   0.0000000
 AtZNuc=   6.0000000   7.0000000   6.0000000   8.0000000   6.0000000   6.0000000   6.0000000   6.0000000   6.0000000   6.0000000

  Atom        11          12          13          14          15          16          17          18          19
 IAtWgt=          12          16           1           1           1           1           1           1           1
 AtmWgt=  12.0000000  15.9949146   1.0078250   1.0078250   1.0078250   1.0078250   1.0078250   1.0078250   1.0078250
 NucSpn=           0           0           1           1           1           1           1           1           1
 AtZEff=  -0.0000000  -0.0000000  -0.0000000  -0.0000000  -0.0000000  -0.0000000  -0.0000000  -0.0000000  -0.0000000
 NQMom=    0.0000000   0.0000000   0.0000000   0.0000000   0.0000000   0.0000000   0.0000000   0.0000000   0.0000000
 NMagM=    0.0000000   0.0000000   2.7928460   2.7928460   2.7928460   2.7928460   2.7928460   2.7928460   2.7928460
 AtZNuc=   6.0000000   8.0000000   1.0000000   1.0000000   1.0000000   1.0000000   1.0000000   1.0000000   1.0000000
 Leave Link  101 at Wed Feb 28 19:48:17 2024, MaxMem=  2147483648 cpu:              10.8 elap:               0.6
 (Enter /software/gaussian-16RevA.03-el7-x86_64/g16/l103.exe)

 GradGradGradGradGradGradGradGradGradGradGradGradGradGradGradGradGradGrad
 Berny optimization.
 Initialization pass.
                           ----------------------------
                           !    Initial Parameters    !
                           ! (Angstroms and Degrees)  !
 --------------------------                            --------------------------
 ! Name  Definition              Value          Derivative Info.                !
 --------------------------------------------------------------------------------
 ! R1    R(1,2)                  1.4415         calculate D2E/DX2 analytically  !
 ! R2    R(1,13)                 1.0941         calculate D2E/DX2 analytically  !
 ! R3    R(1,14)                 1.0941         calculate D2E/DX2 analytically  !
 ! R4    R(1,15)                 1.0927         calculate D2E/DX2 analytically  !
 ! R5    R(2,3)                  1.3682         calculate D2E/DX2 analytically  !
 ! R6    R(2,11)                 1.3674         calculate D2E/DX2 analytically  !
 ! R7    R(3,4)                  1.216          calculate D2E/DX2 analytically  !
 ! R8    R(3,5)                  1.4618         calculate D2E/DX2 analytically  !
 ! R9    R(5,6)                  1.3811         calculate D2E/DX2 analytically  !
 ! R10   R(5,10)                 1.3835         calculate D2E/DX2 analytically  !
 ! R11   R(6,7)                  1.3987         calculate D2E/DX2 analytically  !
 ! R12   R(6,16)                 1.0852         calculate D2E/DX2 analytically  !
 ! R13   R(7,8)                  1.4109         calculate D2E/DX2 analytically  !
 ! R14   R(7,17)                 1.0888         calculate D2E/DX2 analytically  !
 ! R15   R(8,9)                  1.3987         calculate D2E/DX2 analytically  !
 ! R16   R(8,18)                 1.0888         calculate D2E/DX2 analytically  !
 ! R17   R(9,10)                 1.3812         calculate D2E/DX2 analytically  !
 ! R18   R(9,19)                 1.0852         calculate D2E/DX2 analytically  !
 ! R19   R(10,11)                1.4624         calculate D2E/DX2 analytically  !
 ! R20   R(11,12)                1.216          calculate D2E/DX2 analytically  !
 ! A1    A(2,1,13)             108.7648         calculate D2E/DX2 analytically  !
 ! A2    A(2,1,14)             108.7648         calculate D2E/DX2 analytically  !
 ! A3    A(2,1,15)             111.114          calculate D2E/DX2 analytically  !
 ! A4    A(13,1,14)            108.1386         calculate D2E/DX2 analytically  !
 ! A5    A(13,1,15)            109.9957         calculate D2E/DX2 analytically  !
 ! A6    A(14,1,15)            109.9957         calculate D2E/DX2 analytically  !
 ! A7    A(1,2,3)              123.4019         calculate D2E/DX2 analytically  !
 ! A8    A(1,2,11)             124.6149         calculate D2E/DX2 analytically  !
 ! A9    A(3,2,11)             111.9831         calculate D2E/DX2 analytically  !
 ! A10   A(2,3,4)              129.2134         calculate D2E/DX2 analytically  !
 ! A11   A(2,3,5)              106.4271         calculate D2E/DX2 analytically  !
 ! A12   A(4,3,5)              124.3595         calculate D2E/DX2 analytically  !
 ! A13   A(3,5,6)              130.4366         calculate D2E/DX2 analytically  !
 ! A14   A(3,5,10)             107.5735         calculate D2E/DX2 analytically  !
 ! A15   A(6,5,10)             121.9899         calculate D2E/DX2 analytically  !
 ! A16   A(5,6,7)              117.1485         calculate D2E/DX2 analytically  !
 ! A17   A(5,6,16)             121.1778         calculate D2E/DX2 analytically  !
 ! A18   A(7,6,16)             121.6737         calculate D2E/DX2 analytically  !
 ! A19   A(6,7,8)              120.8705         calculate D2E/DX2 analytically  !
 ! A20   A(6,7,17)             119.675          calculate D2E/DX2 analytically  !
 ! A21   A(8,7,17)             119.4545         calculate D2E/DX2 analytically  !
 ! A22   A(7,8,9)              120.8719         calculate D2E/DX2 analytically  !
 ! A23   A(7,8,18)             119.4555         calculate D2E/DX2 analytically  !
 ! A24   A(9,8,18)             119.6726         calculate D2E/DX2 analytically  !
 ! A25   A(8,9,10)             117.1593         calculate D2E/DX2 analytically  !
 ! A26   A(8,9,19)             121.6704         calculate D2E/DX2 analytically  !
 ! A27   A(10,9,19)            121.1704         calculate D2E/DX2 analytically  !
 ! A28   A(5,10,9)             121.96           calculate D2E/DX2 analytically  !
 ! A29   A(5,10,11)            107.6261         calculate D2E/DX2 analytically  !
 ! A30   A(9,10,11)            130.414          calculate D2E/DX2 analytically  !
 ! A31   A(2,11,10)            106.3902         calculate D2E/DX2 analytically  !
 ! A32   A(2,11,12)            129.4855         calculate D2E/DX2 analytically  !
 ! A33   A(10,11,12)           124.1243         calculate D2E/DX2 analytically  !
 ! D1    D(13,1,2,3)           -58.78           calculate D2E/DX2 analytically  !
 ! D2    D(13,1,2,11)          121.2201         calculate D2E/DX2 analytically  !
 ! D3    D(14,1,2,3)            58.7799         calculate D2E/DX2 analytically  !
 ! D4    D(14,1,2,11)         -121.2201         calculate D2E/DX2 analytically  !
 ! D5    D(15,1,2,3)           179.9999         calculate D2E/DX2 analytically  !
 ! D6    D(15,1,2,11)            0.0            calculate D2E/DX2 analytically  !
 ! D7    D(1,2,3,4)              0.0001         calculate D2E/DX2 analytically  !
 ! D8    D(1,2,3,5)            180.0            calculate D2E/DX2 analytically  !
 ! D9    D(11,2,3,4)          -180.0            calculate D2E/DX2 analytically  !
 ! D10   D(11,2,3,5)            -0.0001         calculate D2E/DX2 analytically  !
 ! D11   D(1,2,11,10)          180.0            calculate D2E/DX2 analytically  !
 ! D12   D(1,2,11,12)            0.0            calculate D2E/DX2 analytically  !
 ! D13   D(3,2,11,10)            0.0001         calculate D2E/DX2 analytically  !
 ! D14   D(3,2,11,12)         -180.0            calculate D2E/DX2 analytically  !
 ! D15   D(2,3,5,6)            180.0            calculate D2E/DX2 analytically  !
 ! D16   D(2,3,5,10)             0.0001         calculate D2E/DX2 analytically  !
 ! D17   D(4,3,5,6)             -0.0001         calculate D2E/DX2 analytically  !
 ! D18   D(4,3,5,10)           180.0            calculate D2E/DX2 analytically  !
 ! D19   D(3,5,6,7)           -180.0            calculate D2E/DX2 analytically  !
 ! D20   D(3,5,6,16)             0.0001         calculate D2E/DX2 analytically  !
 ! D21   D(10,5,6,7)            -0.0001         calculate D2E/DX2 analytically  !
 ! D22   D(10,5,6,16)         -180.0            calculate D2E/DX2 analytically  !
 ! D23   D(3,5,10,9)           180.0            calculate D2E/DX2 analytically  !
 ! D24   D(3,5,10,11)            0.0            calculate D2E/DX2 analytically  !
 ! D25   D(6,5,10,9)             0.0            calculate D2E/DX2 analytically  !
 ! D26   D(6,5,10,11)         -180.0            calculate D2E/DX2 analytically  !
 ! D27   D(5,6,7,8)              0.0001         calculate D2E/DX2 analytically  !
 ! D28   D(5,6,7,17)          -180.0            calculate D2E/DX2 analytically  !
 ! D29   D(16,6,7,8)           180.0            calculate D2E/DX2 analytically  !
 ! D30   D(16,6,7,17)           -0.0001         calculate D2E/DX2 analytically  !
 ! D31   D(6,7,8,9)              0.0            calculate D2E/DX2 analytically  !
 ! D32   D(6,7,8,18)           180.0            calculate D2E/DX2 analytically  !
 ! D33   D(17,7,8,9)          -180.0            calculate D2E/DX2 analytically  !
 ! D34   D(17,7,8,18)            0.0            calculate D2E/DX2 analytically  !
 ! D35   D(7,8,9,10)             0.0            calculate D2E/DX2 analytically  !
 ! D36   D(7,8,9,19)          -180.0            calculate D2E/DX2 analytically  !
 ! D37   D(18,8,9,10)          180.0            calculate D2E/DX2 analytically  !
 ! D38   D(18,8,9,19)            0.0            calculate D2E/DX2 analytically  !
 ! D39   D(8,9,10,5)             0.0            calculate D2E/DX2 analytically  !
 ! D40   D(8,9,10,11)         -180.0            calculate D2E/DX2 analytically  !
 ! D41   D(19,9,10,5)          180.0            calculate D2E/DX2 analytically  !
 ! D42   D(19,9,10,11)           0.0            calculate D2E/DX2 analytically  !
 ! D43   D(5,10,11,2)            0.0            calculate D2E/DX2 analytically  !
 ! D44   D(5,10,11,12)        -180.0            calculate D2E/DX2 analytically  !
 ! D45   D(9,10,11,2)          180.0            calculate D2E/DX2 analytically  !
 ! D46   D(9,10,11,12)           0.0            calculate D2E/DX2 analytically  !
 --------------------------------------------------------------------------------
 Trust Radius=3.00D-01 FncErr=5.00D-06 GrdErr=5.00D-06 EigMax=2.50D+02 EigMin=1.00D-04
 Number of steps in this run=    114 maximum allowed number of steps=    114.
 Step   0 in ReCalcFC=50 IGetFC= 4 compute analytic Hessian.
 GradGradGradGradGradGradGradGradGradGradGradGradGradGradGradGradGradGrad

 Leave Link  103 at Wed Feb 28 19:48:18 2024, MaxMem=  2147483648 cpu:               1.9 elap:               0.2
 (Enter /software/gaussian-16RevA.03-el7-x86_64/g16/l202.exe)
                          Input orientation:                          
 ---------------------------------------------------------------------
 Center     Atomic      Atomic             Coordinates (Angstroms)
 Number     Number       Type             X           Y           Z
 ---------------------------------------------------------------------
      1          6           0       -3.166316    0.265612    0.220018
      2          7           0       -1.732181    0.156507    0.123598
      3          6           0       -1.087004   -0.994520   -0.237962
      4          8           0       -1.554294   -2.078564   -0.529826
      5          6           0        0.342924   -0.691548   -0.215206
      6          6           0        1.432805   -1.492129   -0.495705
      7          6           0        2.698957   -0.908399   -0.384467
      8          6           0        2.842488    0.441794   -0.001098
      9          6           0        1.722344    1.231674    0.277682
     10          6           0        0.483454    0.632442    0.160733
     11          6           0       -0.856757    1.175643    0.378246
     12          8           0       -1.081533    2.321012    0.719144
     13          1           0       -3.603908    0.023477   -0.753041
     14          1           0       -3.526930   -0.467577    0.947585
     15          1           0       -3.464967    1.271762    0.524061
     16          1           0        1.307301   -2.529221   -0.789483
     17          1           0        3.586730   -1.502142   -0.596094
     18          1           0        3.839186    0.872791    0.078236
     19          1           0        1.817701    2.271385    0.573580
 ---------------------------------------------------------------------
                    Distance matrix (angstroms):
                    1          2          3          4          5
     1  C    0.000000
     2  N    1.441508   0.000000
     3  C    2.474109   1.368153   0.000000
     4  O    2.942115   2.335412   1.216016   0.000000
     5  C    3.663378   2.267167   1.461849   2.371125   0.000000
     6  C    4.975322   3.621971   2.581372   3.044311   1.381105
     7  C    6.012082   4.585536   3.789773   4.413679   2.372038
     8  C    6.015452   4.585252   4.190467   5.095434   2.752840
     9  C    4.983533   3.621252   3.621362   4.727166   2.417544
    10  C    3.668637   2.266480   2.296149   3.461046   1.383484
    11  C    2.487419   1.367425   2.267671   3.449785   2.297351
    12  O    2.969868   2.337327   3.450918   4.597793   3.460868
    13  H    1.094057   2.071124   2.763409   2.944371   4.046975
    14  H    1.094058   2.071125   2.763409   2.944370   4.046976
    15  H    1.092690   2.099217   3.372154   3.998254   4.347544
    16  H    5.370608   4.157560   2.896926   2.908477   2.153337
    17  H    7.028131   5.617819   4.714841   5.173662   3.365177
    18  H    7.033195   5.617406   5.277706   6.178176   3.841499
    19  H    5.384102   4.156544   4.445452   5.613369   3.402370
                    6          7          8          9         10
     6  C    0.000000
     7  C    1.398662   0.000000
     8  C    2.443747   1.410884   0.000000
     9  C    2.846237   2.443794   1.398696   0.000000
    10  C    2.417846   2.753160   2.372252   1.381161   0.000000
    11  C    3.622553   4.191427   3.790363   2.581669   1.462376
    12  O    4.726288   5.093050   4.410006   3.040275   2.369024
    13  H    5.266095   6.382033   6.503570   5.557975   4.232298
    14  H    5.266096   6.382034   6.503571   5.557976   4.232299
    15  H    5.715522   6.600946   6.383465   5.193313   4.016312
    16  H    1.085180   2.174352   3.435881   3.931340   3.402609
    17  H    2.156286   1.088787   2.164903   3.422451   3.841817
    18  H    3.422415   2.164914   1.088788   2.156292   3.365340
    19  H    3.931355   3.435912   2.174361   1.085195   2.153321
                   11         12         13         14         15
    11  C    0.000000
    12  O    1.215979   0.000000
    13  H    3.186555   3.715962   0.000000
    14  H    3.186557   3.715963   1.771776   0.000000
    15  H    2.614051   2.611463   1.791231   1.791232   0.000000
    16  H    4.446657   5.613131   5.535121   5.535122   6.240786
    17  H    5.278679   6.175681   7.352375   7.352376   7.660008
    18  H    4.715252   5.169292   7.537374   7.537375   7.328614
    19  H    2.896814   2.903310   6.017213   6.017215   5.376642
                   16         17         18         19
    16  H    0.000000
    17  H    2.507606   0.000000
    18  H    4.328633   2.481685   0.000000
    19  H    5.016400   4.328638   2.507555   0.000000
 Symmetry turned off by external request.
 Stoichiometry    C9H7NO2
 Framework group  C1[X(C9H7NO2)]
 Deg. of freedom    51
 Full point group                 C1      NOp   1
 Rotational constants (GHZ):           1.7370143           0.8925012           0.5917555
 Leave Link  202 at Wed Feb 28 19:48:19 2024, MaxMem=  2147483648 cpu:               4.1 elap:               0.3
 (Enter /software/gaussian-16RevA.03-el7-x86_64/g16/l301.exe)
 Standard basis: def2SVPP (5D, 7F)
 Ernie: Thresh=  0.10000D-02 Tol=  0.10000D-05 Strict=F.
   182 basis functions,   328 primitive gaussians,   194 cartesian basis functions
    42 alpha electrons       42 beta electrons
       nuclear repulsion energy       661.3938959691 Hartrees.
 IExCor= 4639 DFT=T Ex+Corr=wB97XD ExCW=0 ScaHFX=  1.000000
 ScaDFX=  1.000000  1.000000  1.000000  1.000000 ScalE2=  1.000000  1.000000
 IRadAn=      5 IRanWt=     -1 IRanGd=            0 ICorTp=0 IEmpDi=121
 HFx  wShort=  0.000000 wLong=  0.200000 cFull=  0.222036 cShort=  0.000000 cLong=  0.777964
 DFx  wShort=  0.000000 wLong=  0.200000 cFull=  0.000000 cShort=  0.000000 cLong=  1.000000
 NAtoms=   19 NActive=   19 NUniq=   19 SFac= 1.00D+00 NAtFMM=   60 NAOKFM=F Big=F
 Integral buffers will be    131072 words long.
 Raffenetti 2 integral format.
 Two-electron integral symmetry is turned off.
 R6Disp:  Grimme-D2 Dispersion energy=       -0.0101430143 Hartrees.
 Nuclear repulsion after empirical dispersion term =      661.3837529548 Hartrees.
 Force inversion solution in PCM.
 ------------------------------------------------------------------------------
 Polarizable Continuum Model (PCM)
 =================================
 Model                : PCM.
 Atomic radii         : UFF (Universal Force Field).
 Polarization charges : Total charges.
 Charge compensation  : None.
 Solution method      : Matrix inversion.
 Cavity type          : Scaled VdW (van der Waals Surface) (Alpha=1.100).
 Cavity algorithm     : GePol (No added spheres)
                        Default sphere list used, NSphG=   19.
                        Lebedev-Laikov grids with approx.  5.0 points / Ang**2.
                        Smoothing algorithm: York/Karplus (Gamma=1.0000).
                        Polarization charges: spherical gaussians, with
                                              point-specific exponents (IZeta= 3).
                        Self-potential: point-specific (ISelfS= 7).
                        Self-field    : sphere-specific E.n sum rule (ISelfD= 2).
 1st derivatives      : Analytical E(r).r(x)/FMM algorithm (CHGder, D1EAlg=3).
                        Cavity 1st derivative terms included.
 2nd derivatives      : Analytical E(r).r(xy)/FMM algorithm (CHGder, D2EAlg=3).
                        Cavity 2nd derivative terms included.
 Solvent              : n,n-DiMethylFormamide, Eps=  37.219000 Eps(inf)=   2.046330
 ------------------------------------------------------------------------------
 Spheres list:
 ISph  on   Nord     Re0    Alpha      Xe            Ye            Ze
    1   C      1    1.9255  1.100     -3.166316      0.265612      0.220018
    2   N      2    1.8300  1.100     -1.732181      0.156507      0.123598
    3   C      3    1.9255  1.100     -1.087004     -0.994520     -0.237962
    4   O      4    1.7500  1.100     -1.554294     -2.078564     -0.529826
    5   C      5    1.9255  1.100      0.342924     -0.691548     -0.215206
    6   C      6    1.9255  1.100      1.432805     -1.492129     -0.495705
    7   C      7    1.9255  1.100      2.698957     -0.908399     -0.384467
    8   C      8    1.9255  1.100      2.842488      0.441794     -0.001098
    9   C      9    1.9255  1.100      1.722344      1.231674      0.277682
   10   C     10    1.9255  1.100      0.483454      0.632442      0.160733
   11   C     11    1.9255  1.100     -0.856757      1.175643      0.378246
   12   O     12    1.7500  1.100     -1.081533      2.321012      0.719144
   13   H     13    1.4430  1.100     -3.603908      0.023477     -0.753041
   14   H     14    1.4430  1.100     -3.526930     -0.467577      0.947585
   15   H     15    1.4430  1.100     -3.464967      1.271762      0.524061
   16   H     16    1.4430  1.100      1.307301     -2.529221     -0.789483
   17   H     17    1.4430  1.100      3.586730     -1.502142     -0.596094
   18   H     18    1.4430  1.100      3.839186      0.872791      0.078236
   19   H     19    1.4430  1.100      1.817701      2.271385      0.573580
 ------------------------------------------------------------------------------
 GePol: Number of generator spheres                  =      19
 GePol: Total number of spheres                      =      19
 GePol: Number of exposed spheres                    =      19 (100.00%)
 GePol: Number of points                             =    1635
 GePol: Average weight of points                     =       0.13
 GePol: Minimum weight of points                     =   0.17D-09
 GePol: Maximum weight of points                     =    0.20577
 GePol: Number of points with low weight             =      78
 GePol: Fraction of low-weight points (<1% of avg)   =       4.77%
 GePol: Cavity surface area                          =    215.005 Ang**2
 GePol: Cavity volume                                =    218.270 Ang**3
 Leave Link  301 at Wed Feb 28 19:48:21 2024, MaxMem=  2147483648 cpu:               4.6 elap:               0.6
 (Enter /software/gaussian-16RevA.03-el7-x86_64/g16/l302.exe)
 NPDir=0 NMtPBC=     1 NCelOv=     1 NCel=       1 NClECP=     1 NCelD=      1
         NCelK=      1 NCelE2=     1 NClLst=     1 CellRange=     0.0.
 One-electron integrals computed using PRISM.
   1 Symmetry operations used in ECPInt.
 ECPInt:  NShTT=    3741 NPrTT=   15055 LenC2=    3667 LenP2D=   11057.
 LDataN:  DoStor=T MaxTD1= 4 Len=   56
 NBasis=   182 RedAO= T EigKep=  2.73D-04  NBF=   182
 NBsUse=   182 1.00D-06 EigRej= -1.00D+00 NBFU=   182
 Precomputing XC quadrature grid using
 IXCGrd= 4 IRadAn=           5 IRanWt=          -1 IRanGd=           0 AccXCQ= 0.00D+00.
 Generated NRdTot=       0 NPtTot=           0 NUsed=           0 NTot=          32
 NSgBfM=   193   193   193   193   193 MxSgAt=    19 MxSgA2=    19.
 Leave Link  302 at Wed Feb 28 19:48:23 2024, MaxMem=  2147483648 cpu:              17.3 elap:               0.8
 (Enter /software/gaussian-16RevA.03-el7-x86_64/g16/l303.exe)
 DipDrv:  MaxL=1.
 Leave Link  303 at Wed Feb 28 19:48:24 2024, MaxMem=  2147483648 cpu:               2.4 elap:               0.2
 (Enter /software/gaussian-16RevA.03-el7-x86_64/g16/l401.exe)
 ExpMin= 1.22D-01 ExpMax= 2.27D+03 ExpMxC= 3.41D+02 IAcc=3 IRadAn=         5 AccDes= 0.00D+00
 Harris functional with IExCor= 4639 and IRadAn=       5 diagonalized for initial guess.
 HarFok:  IExCor= 4639 AccDes= 0.00D+00 IRadAn=         5 IDoV= 1 UseB2=F ITyADJ=14
 ICtDFT=  3500011 ScaDFX=  1.000000  1.000000  1.000000  1.000000
 FoFCou: FMM=F IPFlag=           0 FMFlag=      100000 FMFlg1=           0
         NFxFlg=           0 DoJE=T BraDBF=F KetDBF=T FulRan=T
         wScrn=  0.000000 ICntrl=       500 IOpCl=  0 I1Cent=   200000004 NGrid=           0
         NMat0=    1 NMatS0=      1 NMatT0=    0 NMatD0=    1 NMtDS0=    0 NMtDT0=    0
 Symmetry not used in FoFCou.
 Harris En= -528.806570578189    
 JPrj=0 DoOrth=F DoCkMO=F.
 Leave Link  401 at Wed Feb 28 19:48:25 2024, MaxMem=  2147483648 cpu:              19.6 elap:               0.8
 (Enter /software/gaussian-16RevA.03-el7-x86_64/g16/l502.exe)
 Two-electron integral symmetry not used.
 Closed shell SCF:
 Using DIIS extrapolation, IDIIS=  1040.
 NGot=  2147483648 LenX=  2147401213 LenY=  2147363136
 Requested convergence on RMS density matrix=1.00D-08 within  32 cycles.
 Requested convergence on MAX density matrix=1.00D-06.
 Requested convergence on             energy=1.00D-06.
 No special actions if energy rises.
 Fock matrices will be formed incrementally for  20 cycles.

 Cycle   1  Pass 1  IDiag  1:
 FoFJK:  IHMeth= 1 ICntrl=       0 DoSepK=T KAlg= 0 I1Cent=           0 FoldK=F
 IRaf=         1 NMat=       1 IRICut=       1 DoRegI=T DoRafI=F ISym2E= 0 IDoP0=0 IntGTp=1.
 FoFCou: FMM=F IPFlag=           0 FMFlag=      100000 FMFlg1=           0
         NFxFlg=           0 DoJE=T BraDBF=F KetDBF=F FulRan=T
         wScrn=  0.000000 ICntrl=       500 IOpCl=  0 I1Cent=           0 NGrid=           0
         NMat0=    1 NMatS0=      1 NMatT0=    0 NMatD0=    1 NMtDS0=    0 NMtDT0=    0
 Symmetry not used in FoFCou.
 Inv3:  Mode=1 IEnd=     8019675.
 Iteration    1 A*A^-1 deviation from unit magnitude is 3.33D-15 for      7.
 Iteration    1 A*A^-1 deviation from orthogonality  is 1.95D-15 for    801    289.
 Iteration    1 A^-1*A deviation from unit magnitude is 3.22D-15 for    210.
 Iteration    1 A^-1*A deviation from orthogonality  is 1.55D-15 for   1457     50.
 E= -551.712193595833    
 DIIS: error= 3.15D-02 at cycle   1 NSaved=   1.
 NSaved= 1 IEnMin= 1 EnMin= -551.712193595833     IErMin= 1 ErrMin= 3.15D-02
 ErrMax= 3.15D-02  0.00D+00 EMaxC= 1.00D-01 BMatC= 2.45D-01 BMatP= 2.45D-01
 IDIUse=3 WtCom= 6.85D-01 WtEn= 3.15D-01
 Coeff-Com:  0.100D+01
 Coeff-En:   0.100D+01
 Coeff:      0.100D+01
 Gap=     0.385 Goal=   None    Shift=    0.000
 GapD=    0.385 DampG=1.000 DampE=0.500 DampFc=0.5000 IDamp=-1.
 Damping current iteration by 5.00D-01
 RMSDP=4.57D-03 MaxDP=9.99D-02              OVMax= 9.86D-02

 Cycle   2  Pass 1  IDiag  1:
 RMSU=  2.23D-03    CP:  9.84D-01
 E= -551.763285143111     Delta-E=       -0.051091547277 Rises=F Damp=T
 DIIS: error= 1.64D-02 at cycle   2 NSaved=   2.
 NSaved= 2 IEnMin= 2 EnMin= -551.763285143111     IErMin= 2 ErrMin= 1.64D-02
 ErrMax= 1.64D-02  0.00D+00 EMaxC= 1.00D-01 BMatC= 4.60D-02 BMatP= 2.45D-01
 IDIUse=3 WtCom= 8.36D-01 WtEn= 1.64D-01
 Coeff-Com: -0.420D+00 0.142D+01
 Coeff-En:   0.000D+00 0.100D+01
 Coeff:     -0.351D+00 0.135D+01
 Gap=     0.354 Goal=   None    Shift=    0.000
 RMSDP=2.01D-03 MaxDP=5.74D-02 DE=-5.11D-02 OVMax= 8.47D-02

 Cycle   3  Pass 1  IDiag  1:
 RMSU=  1.49D-03    CP:  9.66D-01  1.56D+00
 E= -551.805762496345     Delta-E=       -0.042477353235 Rises=F Damp=F
 DIIS: error= 1.39D-02 at cycle   3 NSaved=   3.
 NSaved= 3 IEnMin= 3 EnMin= -551.805762496345     IErMin= 3 ErrMin= 1.39D-02
 ErrMax= 1.39D-02  0.00D+00 EMaxC= 1.00D-01 BMatC= 1.18D-02 BMatP= 4.60D-02
 IDIUse=3 WtCom= 8.61D-01 WtEn= 1.39D-01
 Coeff-Com: -0.274D+00 0.600D+00 0.674D+00
 Coeff-En:   0.000D+00 0.000D+00 0.100D+01
 Coeff:     -0.236D+00 0.516D+00 0.720D+00
 Gap=     0.338 Goal=   None    Shift=    0.000
 RMSDP=6.98D-04 MaxDP=2.99D-02 DE=-4.25D-02 OVMax= 3.79D-02

 Cycle   4  Pass 1  IDiag  1:
 RMSU=  4.81D-04    CP:  9.65D-01  1.73D+00  7.78D-01
 E= -551.813877844980     Delta-E=       -0.008115348635 Rises=F Damp=F
 DIIS: error= 4.96D-03 at cycle   4 NSaved=   4.
 NSaved= 4 IEnMin= 4 EnMin= -551.813877844980     IErMin= 4 ErrMin= 4.96D-03
 ErrMax= 4.96D-03  0.00D+00 EMaxC= 1.00D-01 BMatC= 2.60D-03 BMatP= 1.18D-02
 IDIUse=3 WtCom= 9.50D-01 WtEn= 4.96D-02
 Coeff-Com: -0.119D+00 0.233D+00 0.414D+00 0.471D+00
 Coeff-En:   0.000D+00 0.000D+00 0.110D+00 0.890D+00
 Coeff:     -0.113D+00 0.221D+00 0.399D+00 0.492D+00
 Gap=     0.325 Goal=   None    Shift=    0.000
 RMSDP=2.75D-04 MaxDP=7.35D-03 DE=-8.12D-03 OVMax= 1.20D-02

 Cycle   5  Pass 1  IDiag  1:
 RMSU=  1.38D-04    CP:  9.64D-01  1.74D+00  8.49D-01  5.70D-01
 E= -551.815759519920     Delta-E=       -0.001881674940 Rises=F Damp=F
 DIIS: error= 5.85D-04 at cycle   5 NSaved=   5.
 NSaved= 5 IEnMin= 5 EnMin= -551.815759519920     IErMin= 5 ErrMin= 5.85D-04
 ErrMax= 5.85D-04  0.00D+00 EMaxC= 1.00D-01 BMatC= 5.24D-05 BMatP= 2.60D-03
 IDIUse=3 WtCom= 9.94D-01 WtEn= 5.85D-03
 Coeff-Com: -0.274D-01 0.499D-01 0.120D+00 0.204D+00 0.654D+00
 Coeff-En:   0.000D+00 0.000D+00 0.000D+00 0.000D+00 0.100D+01
 Coeff:     -0.272D-01 0.496D-01 0.119D+00 0.202D+00 0.656D+00
 Gap=     0.325 Goal=   None    Shift=    0.000
 RMSDP=4.88D-05 MaxDP=1.44D-03 DE=-1.88D-03 OVMax= 2.00D-03

 Cycle   6  Pass 1  IDiag  1:
 RMSU=  3.62D-05    CP:  9.64D-01  1.74D+00  8.54D-01  6.26D-01  9.55D-01
 E= -551.815805374517     Delta-E=       -0.000045854598 Rises=F Damp=F
 DIIS: error= 1.61D-04 at cycle   6 NSaved=   6.
 NSaved= 6 IEnMin= 6 EnMin= -551.815805374517     IErMin= 6 ErrMin= 1.61D-04
 ErrMax= 1.61D-04  0.00D+00 EMaxC= 1.00D-01 BMatC= 3.15D-06 BMatP= 5.24D-05
 IDIUse=3 WtCom= 9.98D-01 WtEn= 1.61D-03
 Coeff-Com:  0.142D-01-0.289D-01-0.390D-01-0.350D-01 0.148D+00 0.941D+00
 Coeff-En:   0.000D+00 0.000D+00 0.000D+00 0.000D+00 0.000D+00 0.100D+01
 Coeff:      0.142D-01-0.288D-01-0.389D-01-0.349D-01 0.148D+00 0.941D+00
 Gap=     0.326 Goal=   None    Shift=    0.000
 RMSDP=2.60D-05 MaxDP=4.40D-04 DE=-4.59D-05 OVMax= 1.44D-03

 Cycle   7  Pass 1  IDiag  1:
 RMSU=  1.34D-05    CP:  9.63D-01  1.75D+00  8.62D-01  6.36D-01  1.07D+00
                    CP:  1.14D+00
 E= -551.815811512941     Delta-E=       -0.000006138424 Rises=F Damp=F
 DIIS: error= 3.91D-05 at cycle   7 NSaved=   7.
 NSaved= 7 IEnMin= 7 EnMin= -551.815811512941     IErMin= 7 ErrMin= 3.91D-05
 ErrMax= 3.91D-05  0.00D+00 EMaxC= 1.00D-01 BMatC= 4.23D-07 BMatP= 3.15D-06
 IDIUse=1 WtCom= 1.00D+00 WtEn= 0.00D+00
 Coeff-Com:  0.706D-02-0.138D-01-0.219D-01-0.287D-01 0.362D-04 0.336D+00
 Coeff-Com:  0.721D+00
 Coeff:      0.706D-02-0.138D-01-0.219D-01-0.287D-01 0.362D-04 0.336D+00
 Coeff:      0.721D+00
 Gap=     0.326 Goal=   None    Shift=    0.000
 RMSDP=5.90D-06 MaxDP=1.34D-04 DE=-6.14D-06 OVMax= 3.52D-04

 Cycle   8  Pass 1  IDiag  1:
 RMSU=  3.79D-06    CP:  9.63D-01  1.75D+00  8.62D-01  6.37D-01  1.10D+00
                    CP:  1.21D+00  1.01D+00
 E= -551.815812069688     Delta-E=       -0.000000556747 Rises=F Damp=F
 DIIS: error= 1.79D-05 at cycle   8 NSaved=   8.
 NSaved= 8 IEnMin= 8 EnMin= -551.815812069688     IErMin= 8 ErrMin= 1.79D-05
 ErrMax= 1.79D-05  0.00D+00 EMaxC= 1.00D-01 BMatC= 2.58D-08 BMatP= 4.23D-07
 IDIUse=1 WtCom= 1.00D+00 WtEn= 0.00D+00
 Coeff-Com: -0.243D-03 0.575D-03 0.448D-03-0.200D-02-0.149D-01-0.327D-01
 Coeff-Com:  0.128D+00 0.921D+00
 Coeff:     -0.243D-03 0.575D-03 0.448D-03-0.200D-02-0.149D-01-0.327D-01
 Coeff:      0.128D+00 0.921D+00
 Gap=     0.326 Goal=   None    Shift=    0.000
 RMSDP=2.25D-06 MaxDP=4.84D-05 DE=-5.57D-07 OVMax= 1.40D-04

 Cycle   9  Pass 1  IDiag  1:
 RMSU=  1.35D-06    CP:  9.63D-01  1.75D+00  8.62D-01  6.36D-01  1.10D+00
                    CP:  1.22D+00  1.11D+00  1.15D+00
 E= -551.815812128077     Delta-E=       -0.000000058389 Rises=F Damp=F
 DIIS: error= 5.64D-06 at cycle   9 NSaved=   9.
 NSaved= 9 IEnMin= 9 EnMin= -551.815812128077     IErMin= 9 ErrMin= 5.64D-06
 ErrMax= 5.64D-06  0.00D+00 EMaxC= 1.00D-01 BMatC= 5.51D-09 BMatP= 2.58D-08
 IDIUse=1 WtCom= 1.00D+00 WtEn= 0.00D+00
 Coeff-Com: -0.985D-03 0.195D-02 0.302D-02 0.279D-02-0.488D-02-0.499D-01
 Coeff-Com: -0.426D-01 0.343D+00 0.748D+00
 Coeff:     -0.985D-03 0.195D-02 0.302D-02 0.279D-02-0.488D-02-0.499D-01
 Coeff:     -0.426D-01 0.343D+00 0.748D+00
 Gap=     0.326 Goal=   None    Shift=    0.000
 RMSDP=8.09D-07 MaxDP=1.55D-05 DE=-5.84D-08 OVMax= 7.13D-05

 Cycle  10  Pass 1  IDiag  1:
 RMSU=  5.51D-07    CP:  9.63D-01  1.75D+00  8.62D-01  6.36D-01  1.10D+00
                    CP:  1.23D+00  1.14D+00  1.26D+00  1.04D+00
 E= -551.815812139248     Delta-E=       -0.000000011171 Rises=F Damp=F
 DIIS: error= 3.11D-06 at cycle  10 NSaved=  10.
 NSaved=10 IEnMin=10 EnMin= -551.815812139248     IErMin=10 ErrMin= 3.11D-06
 ErrMax= 3.11D-06  0.00D+00 EMaxC= 1.00D-01 BMatC= 4.91D-10 BMatP= 5.51D-09
 IDIUse=1 WtCom= 1.00D+00 WtEn= 0.00D+00
 Coeff-Com: -0.905D-04 0.170D-03 0.303D-03 0.399D-03 0.981D-03-0.256D-02
 Coeff-Com: -0.243D-01-0.751D-01 0.692D-01 0.103D+01
 Coeff:     -0.905D-04 0.170D-03 0.303D-03 0.399D-03 0.981D-03-0.256D-02
 Coeff:     -0.243D-01-0.751D-01 0.692D-01 0.103D+01
 Gap=     0.326 Goal=   None    Shift=    0.000
 RMSDP=4.18D-07 MaxDP=7.33D-06 DE=-1.12D-08 OVMax= 3.80D-05

 Cycle  11  Pass 1  IDiag  1:
 RMSU=  1.86D-07    CP:  9.63D-01  1.75D+00  8.62D-01  6.36D-01  1.10D+00
                    CP:  1.23D+00  1.14D+00  1.30D+00  1.22D+00  1.32D+00
 E= -551.815812141711     Delta-E=       -0.000000002464 Rises=F Damp=F
 DIIS: error= 1.27D-06 at cycle  11 NSaved=  11.
 NSaved=11 IEnMin=11 EnMin= -551.815812141711     IErMin=11 ErrMin= 1.27D-06
 ErrMax= 1.27D-06  0.00D+00 EMaxC= 1.00D-01 BMatC= 6.95D-11 BMatP= 4.91D-10
 IDIUse=1 WtCom= 1.00D+00 WtEn= 0.00D+00
 Coeff-Com:  0.117D-03-0.232D-03-0.354D-03-0.330D-03 0.715D-03 0.587D-02
 Coeff-Com:  0.369D-02-0.408D-01-0.103D+00 0.498D-01 0.108D+01
 Coeff:      0.117D-03-0.232D-03-0.354D-03-0.330D-03 0.715D-03 0.587D-02
 Coeff:      0.369D-02-0.408D-01-0.103D+00 0.498D-01 0.108D+01
 Gap=     0.326 Goal=   None    Shift=    0.000
 RMSDP=1.78D-07 MaxDP=3.71D-06 DE=-2.46D-09 OVMax= 1.77D-05

 Cycle  12  Pass 1  IDiag  1:
 RMSU=  8.02D-08    CP:  9.63D-01  1.75D+00  8.62D-01  6.36D-01  1.10D+00
                    CP:  1.23D+00  1.15D+00  1.31D+00  1.28D+00  1.52D+00
                    CP:  1.41D+00
 E= -551.815812142142     Delta-E=       -0.000000000431 Rises=F Damp=F
 DIIS: error= 4.47D-07 at cycle  12 NSaved=  12.
 NSaved=12 IEnMin=12 EnMin= -551.815812142142     IErMin=12 ErrMin= 4.47D-07
 ErrMax= 4.47D-07  0.00D+00 EMaxC= 1.00D-01 BMatC= 3.39D-11 BMatP= 6.95D-11
 IDIUse=1 WtCom= 1.00D+00 WtEn= 0.00D+00
 Coeff-Com:  0.754D-04-0.148D-03-0.235D-03-0.230D-03 0.213D-03 0.340D-02
 Coeff-Com:  0.636D-02-0.538D-02-0.713D-01-0.174D+00 0.563D+00 0.678D+00
 Coeff:      0.754D-04-0.148D-03-0.235D-03-0.230D-03 0.213D-03 0.340D-02
 Coeff:      0.636D-02-0.538D-02-0.713D-01-0.174D+00 0.563D+00 0.678D+00
 Gap=     0.326 Goal=   None    Shift=    0.000
 RMSDP=6.91D-08 MaxDP=1.29D-06 DE=-4.31D-10 OVMax= 6.70D-06

 Cycle  13  Pass 1  IDiag  1:
 RMSU=  3.53D-08    CP:  9.63D-01  1.75D+00  8.62D-01  6.36D-01  1.10D+00
                    CP:  1.23D+00  1.15D+00  1.32D+00  1.29D+00  1.59D+00
                    CP:  1.63D+00  1.00D+00
 E= -551.815812142213     Delta-E=       -0.000000000070 Rises=F Damp=F
 DIIS: error= 1.34D-07 at cycle  13 NSaved=  13.
 NSaved=13 IEnMin=13 EnMin= -551.815812142213     IErMin=13 ErrMin= 1.34D-07
 ErrMax= 1.34D-07  0.00D+00 EMaxC= 1.00D-01 BMatC= 2.86D-12 BMatP= 3.39D-11
 IDIUse=1 WtCom= 1.00D+00 WtEn= 0.00D+00
 Coeff-Com:  0.945D-06-0.132D-05-0.712D-05-0.234D-05-0.510D-04-0.404D-04
 Coeff-Com:  0.129D-02 0.659D-02-0.584D-02-0.616D-01-0.154D-01 0.194D+00
 Coeff-Com:  0.881D+00
 Coeff:      0.945D-06-0.132D-05-0.712D-05-0.234D-05-0.510D-04-0.404D-04
 Coeff:      0.129D-02 0.659D-02-0.584D-02-0.616D-01-0.154D-01 0.194D+00
 Coeff:      0.881D+00
 Gap=     0.326 Goal=   None    Shift=    0.000
 RMSDP=2.62D-08 MaxDP=4.81D-07 DE=-7.03D-11 OVMax= 2.51D-06

 Cycle  14  Pass 1  IDiag  1:
 RMSU=  1.18D-08    CP:  9.63D-01  1.75D+00  8.62D-01  6.36D-01  1.10D+00
                    CP:  1.23D+00  1.15D+00  1.32D+00  1.29D+00  1.60D+00
                    CP:  1.70D+00  1.18D+00  1.16D+00
 E= -551.815812142225     Delta-E=       -0.000000000012 Rises=F Damp=F
 DIIS: error= 4.02D-08 at cycle  14 NSaved=  14.
 NSaved=14 IEnMin=14 EnMin= -551.815812142225     IErMin=14 ErrMin= 4.02D-08
 ErrMax= 4.02D-08  0.00D+00 EMaxC= 1.00D-01 BMatC= 5.72D-13 BMatP= 2.86D-12
 IDIUse=1 WtCom= 1.00D+00 WtEn= 0.00D+00
 Coeff-Com: -0.120D-04 0.239D-04 0.350D-04 0.380D-04-0.593D-04-0.565D-03
 Coeff-Com: -0.440D-03 0.411D-02 0.853D-02-0.351D-03-0.925D-01-0.149D-01
 Coeff-Com:  0.391D+00 0.705D+00
 Coeff:     -0.120D-04 0.239D-04 0.350D-04 0.380D-04-0.593D-04-0.565D-03
 Coeff:     -0.440D-03 0.411D-02 0.853D-02-0.351D-03-0.925D-01-0.149D-01
 Coeff:      0.391D+00 0.705D+00
 Gap=     0.326 Goal=   None    Shift=    0.000
 RMSDP=7.75D-09 MaxDP=1.71D-07 DE=-1.21D-11 OVMax= 4.60D-07

 Error on total polarization charges =  0.00717
 SCF Done:  E(RwB97XD) =  -551.815812142     A.U. after   14 cycles
            NFock= 14  Conv=0.77D-08     -V/T= 2.0089
 KE= 5.469243857746D+02 PE=-2.607286610592D+03 EE= 8.471626597201D+02
 Leave Link  502 at Wed Feb 28 19:48:40 2024, MaxMem=  2147483648 cpu:             369.4 elap:              13.6
 (Enter /software/gaussian-16RevA.03-el7-x86_64/g16/l508.exe)
 QCSCF skips out because SCF is already converged.
 Leave Link  508 at Wed Feb 28 19:48:41 2024, MaxMem=  2147483648 cpu:               0.2 elap:               0.2
 (Enter /software/gaussian-16RevA.03-el7-x86_64/g16/l801.exe)
 DoSCS=F DFT=T ScalE2(SS,OS)=  1.000000  1.000000
 Range of M.O.s used for correlation:     1   182
 NBasis=   182 NAE=    42 NBE=    42 NFC=     0 NFV=     0
 NROrb=    182 NOA=    42 NOB=    42 NVA=   140 NVB=   140

 **** Warning!!: The largest alpha MO coefficient is  0.15956469D+02

 Leave Link  801 at Wed Feb 28 19:48:41 2024, MaxMem=  2147483648 cpu:               2.1 elap:               0.2
 (Enter /software/gaussian-16RevA.03-el7-x86_64/g16/l1101.exe)
 Using compressed storage, NAtomX=    19.
 Will process     20 centers per pass.
   1 Symmetry operations used in ECPInt.
 ECPInt:  NShTT=    3741 NPrTT=   15055 LenC2=    3667 LenP2D=   11057.
 LDataN:  DoStor=T MaxTD1= 5 Len=  102
 R6Disp: Adding Grimme-D2 dispersion energy 1st derivatives to the gradient.
 Leave Link 1101 at Wed Feb 28 19:48:43 2024, MaxMem=  2147483648 cpu:              12.8 elap:               0.7
 (Enter /software/gaussian-16RevA.03-el7-x86_64/g16/l1102.exe)
 Symmetrizing basis deriv contribution to polar:
 IMax=3 JMax=2 DiffMx= 0.00D+00
 Leave Link 1102 at Wed Feb 28 19:48:44 2024, MaxMem=  2147483648 cpu:               2.5 elap:               0.4
 (Enter /software/gaussian-16RevA.03-el7-x86_64/g16/l1110.exe)
 Forming Gx(P) for the SCF density, NAtomX=    19.
 Integral derivatives from FoFJK, PRISM(SPDF).
 Do as many integral derivatives as possible in FoFJK.
 G2DrvN: MDV=    2147482144.
 G2DrvN: will do    20 centers at a time, making    1 passes.
 Calling FoFCou, ICntrl=  3107 FMM=F I1Cent=   0 AccDes= 0.00D+00.
 FoFJK:  IHMeth= 1 ICntrl=    3107 DoSepK=T KAlg= 0 I1Cent=           0 FoldK=F
 IRaf=         1 NMat=       1 IRICut=       1 DoRegI=T DoRafI=F ISym2E= 0 IDoP0=0 IntGTp=1.
 FoFCou: FMM=F IPFlag=           0 FMFlag=      100000 FMFlg1=           0
         NFxFlg=           0 DoJE=F BraDBF=F KetDBF=F FulRan=T
         wScrn=  0.000000 ICntrl=      3507 IOpCl=  0 I1Cent=           0 NGrid=           0
         NMat0=    1 NMatS0=      1 NMatT0=    0 NMatD0=    1 NMtDS0=    0 NMtDT0=    0
 Symmetry not used in FoFCou.
 NEqPCM:  Using equilibrium solvation (IEInf=0, Eps=  37.2190, EpsInf=   2.0463)
 G2PCM: DoFxE=T DoFxN=T DoGrad=T DoDP/DQ/DG/TGxP=FFFF NFrqRd=   0 IEInf=0 SqF1=F DoCFld=F IF1Alg=4.
 GePol: Maximum number of non-zero 1st derivatives   =     208
 End of G2Drv F.D. properties file   721 does not exist.
 End of G2Drv F.D. properties file   722 does not exist.
 End of G2Drv F.D. properties file   788 does not exist.
 Leave Link 1110 at Wed Feb 28 19:48:55 2024, MaxMem=  2147483648 cpu:             286.5 elap:              10.4
 (Enter /software/gaussian-16RevA.03-el7-x86_64/g16/l1002.exe)
 Minotr:  Closed shell wavefunction.
          IDoAtm=1111111111111111111
 NEqPCM:  Using equilibrium solvation (IEInf=0, Eps=  37.2190, EpsInf=   2.0463)
          Direct CPHF calculation.
          Differentiating once with respect to electric field.
                with respect to dipole field.
          Differentiating once with respect to nuclear coordinates.
          Requested convergence is 1.0D-08 RMS, and 1.0D-07 maximum.
          Secondary convergence is 1.0D-12 RMS, and 1.0D-12 maximum.
          NewPWx=T KeepS1=F KeepF1=F KeepIn=T MapXYZ=F SortEE=F KeepMc=T.
         5698 words used for storage of precomputed grid.
 Keep R1 ints in memory in canonical form, NReq=305852463.
 FoFCou: FMM=F IPFlag=           0 FMFlag=           0 FMFlg1=           0
         NFxFlg=           0 DoJE=F BraDBF=F KetDBF=F FulRan=T
         wScrn=  0.000000 ICntrl=       600 IOpCl=  0 I1Cent=           0 NGrid=           0
         NMat0=    1 NMatS0=  16653 NMatT0=    0 NMatD0=    1 NMtDS0=    0 NMtDT0=    0
 Symmetry not used in FoFCou.
 Two-electron integral symmetry not used.
          MDV=    2147483648 using IRadAn=       1.
          Solving linear equations simultaneously, MaxMat=       0.
          There are    60 degrees of freedom in the 1st order CPHF.  IDoFFX=6 NUNeed=     3.
     57 vectors produced by pass  0 Test12= 9.80D-15 1.67D-09 XBig12= 7.08D+01 4.92D+00.
 AX will form    57 AO Fock derivatives at one time.
     57 vectors produced by pass  1 Test12= 9.80D-15 1.67D-09 XBig12= 8.56D+00 4.80D-01.
     57 vectors produced by pass  2 Test12= 9.80D-15 1.67D-09 XBig12= 2.05D-01 1.16D-01.
     57 vectors produced by pass  3 Test12= 9.80D-15 1.67D-09 XBig12= 2.67D-03 1.21D-02.
     57 vectors produced by pass  4 Test12= 9.80D-15 1.67D-09 XBig12= 1.83D-05 6.45D-04.
     57 vectors produced by pass  5 Test12= 9.80D-15 1.67D-09 XBig12= 9.50D-08 5.20D-05.
     53 vectors produced by pass  6 Test12= 9.80D-15 1.67D-09 XBig12= 3.72D-10 2.61D-06.
     15 vectors produced by pass  7 Test12= 9.80D-15 1.67D-09 XBig12= 1.32D-12 1.72D-07.
      3 vectors produced by pass  8 Test12= 9.80D-15 1.67D-09 XBig12= 5.57D-15 1.11D-08.
 InvSVY:  IOpt=1 It=  1 EMax= 1.07D-14
 Solved reduced A of dimension   413 with    60 vectors.
 FullF1:  Do perturbations      1 to       3.
 Isotropic polarizability for W=    0.000000      129.50 Bohr**3.
 End of Minotr F.D. properties file   721 does not exist.
 End of Minotr F.D. properties file   722 does not exist.
 End of Minotr F.D. properties file   788 does not exist.
 Leave Link 1002 at Wed Feb 28 19:49:11 2024, MaxMem=  2147483648 cpu:             397.0 elap:              14.3
 (Enter /software/gaussian-16RevA.03-el7-x86_64/g16/l601.exe)
 Copying SCF densities to generalized density rwf, IOpCl= 0 IROHF=0.

 **********************************************************************

            Population analysis using the SCF density.

 **********************************************************************

 Alpha  occ. eigenvalues --  -19.26252 -19.26181 -14.50897 -10.42958 -10.42921
 Alpha  occ. eigenvalues --  -10.33331 -10.32502 -10.32492 -10.32357 -10.32323
 Alpha  occ. eigenvalues --  -10.32178 -10.32134  -1.17887  -1.15126  -1.07899
 Alpha  occ. eigenvalues --   -0.98329  -0.90374  -0.86957  -0.81892  -0.77678
 Alpha  occ. eigenvalues --   -0.72635  -0.72066  -0.66599  -0.61527  -0.59946
 Alpha  occ. eigenvalues --   -0.59635  -0.57674  -0.54665  -0.54584  -0.53610
 Alpha  occ. eigenvalues --   -0.52735  -0.51572  -0.50024  -0.49844  -0.46888
 Alpha  occ. eigenvalues --   -0.46757  -0.45798  -0.38134  -0.37459  -0.36608
 Alpha  occ. eigenvalues --   -0.35641  -0.34859
 Alpha virt. eigenvalues --   -0.02308   0.02566   0.09926   0.15230   0.15312
 Alpha virt. eigenvalues --    0.16061   0.18749   0.20859   0.21552   0.22734
 Alpha virt. eigenvalues --    0.23086   0.24008   0.24982   0.26491   0.29665
 Alpha virt. eigenvalues --    0.31584   0.32382   0.35059   0.36786   0.38228
 Alpha virt. eigenvalues --    0.40393   0.41311   0.42093   0.44901   0.46348
 Alpha virt. eigenvalues --    0.48133   0.50974   0.51419   0.53546   0.53754
 Alpha virt. eigenvalues --    0.54357   0.55566   0.55843   0.57574   0.59238
 Alpha virt. eigenvalues --    0.59885   0.64938   0.66844   0.67975   0.71330
 Alpha virt. eigenvalues --    0.71552   0.71797   0.72227   0.73905   0.75079
 Alpha virt. eigenvalues --    0.75631   0.75925   0.77088   0.77705   0.77928
 Alpha virt. eigenvalues --    0.78613   0.80525   0.82256   0.82499   0.83051
 Alpha virt. eigenvalues --    0.84320   0.86467   0.87277   0.90634   0.93995
 Alpha virt. eigenvalues --    0.97167   0.97527   1.01725   1.06975   1.11951
 Alpha virt. eigenvalues --    1.12648   1.13967   1.15828   1.19332   1.21535
 Alpha virt. eigenvalues --    1.21610   1.25060   1.29993   1.32477   1.33855
 Alpha virt. eigenvalues --    1.36485   1.40351   1.41532   1.48077   1.50405
 Alpha virt. eigenvalues --    1.51868   1.51885   1.54333   1.54630   1.54867
 Alpha virt. eigenvalues --    1.56497   1.69180   1.70710   1.77579   1.84167
 Alpha virt. eigenvalues --    1.85245   1.86803   1.88536   1.91786   1.93868
 Alpha virt. eigenvalues --    1.98578   2.01876   2.02297   2.05220   2.06231
 Alpha virt. eigenvalues --    2.09080   2.09548   2.16741   2.17645   2.19445
 Alpha virt. eigenvalues --    2.22888   2.22951   2.26679   2.30204   2.31929
 Alpha virt. eigenvalues --    2.34999   2.35892   2.37386   2.45023   2.51331
 Alpha virt. eigenvalues --    2.52103   2.57351   2.59771   2.60063   2.67050
 Alpha virt. eigenvalues --    2.71728   2.74269   2.76876   2.77427   2.79085
 Alpha virt. eigenvalues --    2.81795   2.85015   2.86116   2.89917   2.90944
 Alpha virt. eigenvalues --    2.97313   3.23163   3.23383   3.26874   3.31330
 Alpha virt. eigenvalues --    3.44431   3.47553   3.68645   3.72785   3.76756
          Condensed to atoms (all electrons):
               1          2          3          4          5          6
     1  C    4.781316   0.249912  -0.022397   0.006966   0.012623  -0.000154
     2  N    0.249912   6.952517   0.323860  -0.084598  -0.145919   0.008092
     3  C   -0.022397   0.323860   4.633375   0.799916   0.173277  -0.080739
     4  O    0.006966  -0.084598   0.799916   7.623367  -0.122647   0.010369
     5  C    0.012623  -0.145919   0.173277  -0.122647   5.650346   0.299219
     6  C   -0.000154   0.008092  -0.080739   0.010369   0.299219   5.268016
     7  C    0.000005  -0.000020   0.015775   0.000693   0.103420   0.248770
     8  C    0.000004   0.000008  -0.001478  -0.000019  -0.149469   0.096334
     9  C   -0.000077   0.007801   0.017911  -0.000082   0.025051  -0.121627
    10  C    0.012366  -0.157439  -0.032596   0.002830   0.243410   0.024549
    11  C   -0.029291   0.337138  -0.092291  -0.000719  -0.045347   0.017658
    12  O   -0.003174  -0.081887  -0.000912  -0.000010   0.003208  -0.000065
    13  H    0.398108  -0.027081  -0.002917   0.002095   0.001199   0.000006
    14  H    0.398114  -0.027087  -0.002915   0.002095   0.001199   0.000006
    15  H    0.384288  -0.023716   0.004062   0.000156  -0.000630   0.000013
    16  H   -0.000024   0.000555  -0.008584   0.005797  -0.071779   0.445278
    17  H   -0.000000   0.000001  -0.000257  -0.000003   0.012206  -0.064293
    18  H   -0.000000   0.000000   0.000031  -0.000000  -0.001384   0.010571
    19  H   -0.000010   0.000536  -0.000266   0.000002   0.013463  -0.001756
               7          8          9         10         11         12
     1  C    0.000005   0.000004  -0.000077   0.012366  -0.029291  -0.003174
     2  N   -0.000020   0.000008   0.007801  -0.157439   0.337138  -0.081887
     3  C    0.015775  -0.001478   0.017911  -0.032596  -0.092291  -0.000912
     4  O    0.000693  -0.000019  -0.000082   0.002830  -0.000719  -0.000010
     5  C    0.103420  -0.149469   0.025051   0.243410  -0.045347   0.003208
     6  C    0.248770   0.096334  -0.121627   0.024549   0.017658  -0.000065
     7  C    5.176628   0.269691   0.096607  -0.149602  -0.001432  -0.000021
     8  C    0.269691   5.176625   0.248976   0.102906   0.015643   0.000721
     9  C    0.096607   0.248976   5.266759   0.299882  -0.080438   0.010359
    10  C   -0.149602   0.102906   0.299882   5.698548   0.142034  -0.127952
    11  C   -0.001432   0.015643  -0.080438   0.142034   4.657374   0.803700
    12  O   -0.000021   0.000721   0.010359  -0.127952   0.803700   7.619331
    13  H   -0.000001   0.000000   0.000009  -0.000664   0.002043   0.000066
    14  H   -0.000001   0.000000   0.000009  -0.000664   0.002042   0.000067
    15  H    0.000001  -0.000002  -0.000018   0.004189  -0.001819   0.013079
    16  H   -0.063138   0.010475  -0.001820   0.013380  -0.000185   0.000002
    17  H    0.438461  -0.061252   0.010529  -0.001370   0.000033  -0.000000
    18  H   -0.061307   0.438606  -0.064416   0.012248  -0.000252  -0.000003
    19  H    0.010442  -0.062879   0.444593  -0.071962  -0.007801   0.005814
              13         14         15         16         17         18
     1  C    0.398108   0.398114   0.384288  -0.000024  -0.000000  -0.000000
     2  N   -0.027081  -0.027087  -0.023716   0.000555   0.000001   0.000000
     3  C   -0.002917  -0.002915   0.004062  -0.008584  -0.000257   0.000031
     4  O    0.002095   0.002095   0.000156   0.005797  -0.000003  -0.000000
     5  C    0.001199   0.001199  -0.000630  -0.071779   0.012206  -0.001384
     6  C    0.000006   0.000006   0.000013   0.445278  -0.064293   0.010571
     7  C   -0.000001  -0.000001   0.000001  -0.063138   0.438461  -0.061307
     8  C    0.000000   0.000000  -0.000002   0.010475  -0.061252   0.438606
     9  C    0.000009   0.000009  -0.000018  -0.001820   0.010529  -0.064416
    10  C   -0.000664  -0.000664   0.004189   0.013380  -0.001370   0.012248
    11  C    0.002043   0.002042  -0.001819  -0.000185   0.000033  -0.000252
    12  O    0.000066   0.000067   0.013079   0.000002  -0.000000  -0.000003
    13  H    0.513276  -0.021870  -0.017071  -0.000001   0.000000   0.000000
    14  H   -0.021870   0.513284  -0.017069  -0.000001   0.000000   0.000000
    15  H   -0.017071  -0.017069   0.490744  -0.000001   0.000000  -0.000000
    16  H   -0.000001  -0.000001  -0.000001   0.563508  -0.007845  -0.000106
    17  H    0.000000   0.000000   0.000000  -0.007845   0.553619  -0.008534
    18  H    0.000000   0.000000  -0.000000  -0.000106  -0.008534   0.553557
    19  H   -0.000000  -0.000000  -0.000011   0.000020  -0.000105  -0.007876
              19
     1  C   -0.000010
     2  N    0.000536
     3  C   -0.000266
     4  O    0.000002
     5  C    0.013463
     6  C   -0.001756
     7  C    0.010442
     8  C   -0.062879
     9  C    0.444593
    10  C   -0.071962
    11  C   -0.007801
    12  O    0.005814
    13  H   -0.000000
    14  H   -0.000000
    15  H   -0.000011
    16  H    0.000020
    17  H   -0.000105
    18  H   -0.007876
    19  H    0.562957
 Mulliken charges:
               1
     1  C   -0.188575
     2  N   -0.332673
     3  C    0.277143
     4  O   -0.246208
     5  C   -0.001446
     6  C   -0.160247
     7  C   -0.084973
     8  C   -0.084889
     9  C   -0.160009
    10  C   -0.014093
    11  C    0.281910
    12  O   -0.242323
    13  H    0.152802
    14  H    0.152791
    15  H    0.163807
    16  H    0.114468
    17  H    0.128811
    18  H    0.128864
    19  H    0.114839
 Sum of Mulliken charges =  -0.00000
 Mulliken charges with hydrogens summed into heavy atoms:
               1
     1  C    0.280825
     2  N   -0.332673
     3  C    0.277143
     4  O   -0.246208
     5  C   -0.001446
     6  C   -0.045779
     7  C    0.043838
     8  C    0.043975
     9  C   -0.045170
    10  C   -0.014093
    11  C    0.281910
    12  O   -0.242323
 APT charges:
               1
     1  C    0.346363
     2  N   -1.219943
     3  C    1.587816
     4  O   -1.033033
     5  C   -0.243481
     6  C   -0.018951
     7  C   -0.027242
     8  C   -0.024816
     9  C   -0.017876
    10  C   -0.237781
    11  C    1.597509
    12  O   -1.043946
    13  H   -0.002319
    14  H   -0.002224
    15  H    0.063304
    16  H    0.080301
    17  H    0.058225
    18  H    0.057863
    19  H    0.080228
 Sum of APT charges =  -0.00000
 APT charges with hydrogens summed into heavy atoms:
               1
     1  C    0.405125
     2  N   -1.219943
     3  C    1.587816
     4  O   -1.033033
     5  C   -0.243481
     6  C    0.061351
     7  C    0.030983
     8  C    0.033047
     9  C    0.062353
    10  C   -0.237781
    11  C    1.597509
    12  O   -1.043946
 Electronic spatial extent (au):  <R**2>=           1837.7061
 Charge=             -0.0000 electrons
 Dipole moment (field-independent basis, Debye):
    X=              2.2704    Y=             -0.2104    Z=             -0.1632  Tot=              2.2860
 Quadrupole moment (field-independent basis, Debye-Ang):
   XX=            -52.7689   YY=            -78.5798   ZZ=            -69.3386
   XY=             -2.5121   XZ=             -1.4420   YZ=             -2.7664
 Traceless Quadrupole moment (field-independent basis, Debye-Ang):
   XX=             14.1269   YY=            -11.6840   ZZ=             -2.4429
   XY=             -2.5121   XZ=             -1.4420   YZ=             -2.7664
 Octapole moment (field-independent basis, Debye-Ang**2):
  XXX=              9.0892  YYY=             -9.6777  ZZZ=              0.1852  XYY=             33.3701
  XXY=              7.1893  XXZ=              0.9452  XZZ=             -4.6331  YZZ=             -2.0648
  YYZ=             -4.1563  XYZ=             11.5948
 Hexadecapole moment (field-independent basis, Debye-Ang**3):
 XXXX=          -1316.8869 YYYY=           -768.4943 ZZZZ=           -132.0832 XXXY=              5.4292
 XXXZ=             23.1587 YYYX=             22.3969 YYYZ=           -110.0079 ZZZX=             45.1754
 ZZZY=            -94.6117 XXYY=           -378.2236 XXZZ=           -287.5739 YYZZ=           -144.6012
 XXYZ=            -27.4593 YYXZ=             10.3254 ZZXY=             11.1629
 N-N= 6.613837529548D+02 E-N=-2.607286610612D+03  KE= 5.469243857746D+02
  Exact polarizability: 167.548   1.322 152.431  -4.450  26.433  68.509
 Approx polarizability: 132.850   3.537 146.375  -2.274  24.768  67.297
 No NMR shielding tensors so no spin-rotation constants.
 Leave Link  601 at Wed Feb 28 19:49:12 2024, MaxMem=  2147483648 cpu:               6.4 elap:               0.5
 (Enter /software/gaussian-16RevA.03-el7-x86_64/g16/l701.exe)
 ... and contract with generalized density number  0.
 Compute integral second derivatives.
 R6Disp: Adding Grimme-D2 dispersion energy 2nd derivatives to the Hessian.
   1 Symmetry operations used in ECPInt.
 ECPInt:  NShTT=    3741 NPrTT=   15055 LenC2=    3667 LenP2D=   11057.
 LDataN:  DoStor=T MaxTD1= 6 Len=  172
 D2PCM: PCM CHGder 2nd derivatives, FixD1E=F FixD2E=F DoIter=F DoCFld=F I1PDM=0
 GePol: Maximum number of non-zero 2nd derivatives   =     208
 Leave Link  701 at Wed Feb 28 19:49:16 2024, MaxMem=  2147483648 cpu:              72.3 elap:               2.8
 (Enter /software/gaussian-16RevA.03-el7-x86_64/g16/l702.exe)
 L702 exits ... SP integral derivatives will be done elsewhere.
 Leave Link  702 at Wed Feb 28 19:49:16 2024, MaxMem=  2147483648 cpu:               1.6 elap:               0.1
 (Enter /software/gaussian-16RevA.03-el7-x86_64/g16/l703.exe)
 Integral derivatives from FoFJK, PRISM(SPDF).
 Compute integral second derivatives, UseDBF=F ICtDFT=           0.
 Calling FoFJK, ICntrl=    100127 FMM=F ISym2X=0 I1Cent= 0 IOpClX= 0 NMat=1 NMatS=1 NMatT=0.
 FoFJK:  IHMeth= 1 ICntrl=  100127 DoSepK=T KAlg= 0 I1Cent=           0 FoldK=F
 IRaf=         1 NMat=       1 IRICut=       1 DoRegI=T DoRafI=F ISym2E= 0 IDoP0=0 IntGTp=1.
 FoFCou: FMM=F IPFlag=           0 FMFlag=      100000 FMFlg1=         800
         NFxFlg=           0 DoJE=F BraDBF=F KetDBF=F FulRan=T
         wScrn=  0.000000 ICntrl=    100527 IOpCl=  0 I1Cent=           0 NGrid=           0
         NMat0=    1 NMatS0=      1 NMatT0=    0 NMatD0=    1 NMtDS0=    0 NMtDT0=    0
 Symmetry not used in FoFCou.
 Leave Link  703 at Wed Feb 28 19:49:36 2024, MaxMem=  2147483648 cpu:             516.8 elap:              18.7
 (Enter /software/gaussian-16RevA.03-el7-x86_64/g16/l716.exe)
 Dipole        = 8.93245030D-01-8.27729210D-02-6.42032099D-02
 Polarizability= 1.67548065D+02 1.32232802D+00 1.52431075D+02
                -4.45033146D+00 2.64325178D+01 6.85091818D+01
 -------------------------------------------------------------------
 Center     Atomic                   Forces (Hartrees/Bohr)
 Number     Number              X              Y              Z
 -------------------------------------------------------------------
      1        6          -0.001426419   -0.008788332   -0.002477860
      2        7          -0.030541887    0.007196218    0.003468303
      3        6           0.007151333   -0.037640472   -0.011189735
      4        8          -0.011861614    0.014988734    0.004871684
      5        6           0.015862765    0.004676534    0.000625604
      6        6           0.004067629    0.001730226    0.000313861
      7        6          -0.000821371    0.009931201    0.002909393
      8        6          -0.002902465   -0.009607300   -0.002645956
      9        6           0.003567613   -0.002344909   -0.000838351
     10        6           0.014726048   -0.007330315   -0.002794517
     11        6           0.015550919    0.036482909    0.009838906
     12        8          -0.014564116   -0.012233857   -0.002875456
     13        1          -0.004319293    0.000824202   -0.004123445
     14        1          -0.003936943   -0.001608610    0.004269892
     15        1           0.003210800    0.004262590    0.001089857
     16        1          -0.000255820   -0.005141143   -0.001470136
     17        1           0.002712116   -0.001372776   -0.000525836
     18        1           0.002947867    0.000881549    0.000123111
     19        1           0.000832838    0.005093552    0.001430683
 -------------------------------------------------------------------
 Cartesian Forces:  Max     0.037640472 RMS     0.010335582
 FormGI is forming the generalized inverse of G from B-inverse, IUseBI=4.
 Leave Link  716 at Wed Feb 28 19:49:37 2024, MaxMem=  2147483648 cpu:               2.3 elap:               0.2
 (Enter /software/gaussian-16RevA.03-el7-x86_64/g16/l103.exe)

 GradGradGradGradGradGradGradGradGradGradGradGradGradGradGradGradGradGrad
 Berny optimization.
 Red2BG is reusing G-inverse.
 Internal  Forces:  Max     0.023675540 RMS     0.006452042
 Step   1 in ReCalcFC=50 IGetFC= 4 recover analytic Hessian.
 Search for a local minimum.
 Step number   1 out of a maximum of  114
 All quantities printed in internal units (Hartrees-Bohrs-Radians)
 RMS Force = .64520D-02 SwitMx=.10000D-02 MixMth= 1
 Mixed Optimization -- RFO/linear search
 Second derivative matrix not updated -- analytic derivatives used.
 ITU=  0
     Eigenvalues ---   -0.00002   0.00617   0.01006   0.01481   0.01579
     Eigenvalues ---    0.01799   0.01860   0.02151   0.02431   0.02713
     Eigenvalues ---    0.03030   0.03199   0.04348   0.04968   0.06043
     Eigenvalues ---    0.06158   0.10727   0.10761   0.12095   0.12460
     Eigenvalues ---    0.13489   0.14823   0.16737   0.18305   0.18708
     Eigenvalues ---    0.19209   0.19627   0.20585   0.24186   0.24425
     Eigenvalues ---    0.25556   0.28368   0.30252   0.35518   0.35871
     Eigenvalues ---    0.36080   0.36804   0.37403   0.37494   0.38117
     Eigenvalues ---    0.38148   0.38802   0.39129   0.41353   0.43744
     Eigenvalues ---    0.44593   0.49714   0.51078   0.53933   0.85870
     Eigenvalues ---    0.87506
 Eigenvalue     1 is  -2.03D-05 should be greater than     0.000000 Eigenvector:
                          D6        D4        D2        D5        D3
   1                   -0.42224  -0.41803  -0.41771  -0.39884  -0.39463
                          D1        D12       D7        D11       D8
   1                   -0.39431   0.02167  -0.02000   0.01803  -0.01798
 RFO step:  Lambda=-1.20610569D-02 EMin=-2.02511163D-05
 Linear search not attempted -- first point.
 Iteration  1 RMS(Cart)=  0.03414332 RMS(Int)=  0.00092151
 Iteration  2 RMS(Cart)=  0.00089072 RMS(Int)=  0.00014629
 Iteration  3 RMS(Cart)=  0.00000034 RMS(Int)=  0.00014629
 ITry= 1 IFail=0 DXMaxC= 1.69D-01 DCOld= 1.00D+10 DXMaxT= 3.00D-01 DXLimC= 3.00D+00 Rises=F
 Variable       Old X    -DE/DX   Delta X   Delta X   Delta X     New X
                                 (Linear)    (Quad)   (Total)
    R1        2.72405   0.00595   0.00000   0.00570   0.00570   2.72975
    R2        2.06747   0.00521   0.00000   0.01354   0.01354   2.08100
    R3        2.06747   0.00521   0.00000   0.01350   0.01350   2.08097
    R4        2.06489   0.00335   0.00000   0.01094   0.01094   2.07582
    R5        2.58543   0.01876   0.00000   0.04225   0.04228   2.62771
    R6        2.58406   0.02023   0.00000   0.04666   0.04670   2.63076
    R7        2.29794  -0.00997   0.00000  -0.01872  -0.01872   2.27922
    R8        2.76250   0.02368   0.00000   0.05383   0.05381   2.81630
    R9        2.60991   0.00521   0.00000   0.00803   0.00803   2.61794
   R10        2.61441   0.00889   0.00000   0.01716   0.01712   2.63153
   R11        2.64309   0.00166   0.00000   0.00465   0.00464   2.64773
   R12        2.05069   0.00534   0.00000   0.01350   0.01350   2.06420
   R13        2.66618  -0.00744   0.00000  -0.02220  -0.02220   2.64398
   R14        2.05751   0.00306   0.00000   0.00804   0.00804   2.06555
   R15        2.64315   0.00165   0.00000   0.00459   0.00459   2.64774
   R16        2.05751   0.00306   0.00000   0.00801   0.00801   2.06552
   R17        2.61002   0.00516   0.00000   0.00800   0.00801   2.61802
   R18        2.05072   0.00534   0.00000   0.01350   0.01350   2.06422
   R19        2.76349   0.02358   0.00000   0.05345   0.05345   2.81694
   R20        2.29787  -0.00964   0.00000  -0.01897  -0.01897   2.27890
    A1        1.89830   0.00485   0.00000   0.02726   0.02682   1.92513
    A2        1.89830   0.00485   0.00000   0.02731   0.02687   1.92518
    A3        1.93931  -0.00870   0.00000  -0.05381  -0.05370   1.88561
    A4        1.88737  -0.00103   0.00000   0.01361   0.01265   1.90002
    A5        1.91979   0.00016   0.00000  -0.00603  -0.00592   1.91387
    A6        1.91979   0.00016   0.00000  -0.00587  -0.00575   1.91404
    A7        2.15377   0.00123   0.00000   0.00085   0.00082   2.15459
    A8        2.17494   0.00144   0.00000  -0.00441  -0.00444   2.17050
    A9        1.95447  -0.00267   0.00000   0.00356   0.00362   1.95809
   A10        2.25520  -0.01979   0.00000  -0.07091  -0.07091   2.18429
   A11        1.85750   0.00048   0.00000  -0.00644  -0.00643   1.85107
   A12        2.17048   0.01932   0.00000   0.07735   0.07734   2.24782
   A13        2.27655   0.00134   0.00000   0.00112   0.00115   2.27770
   A14        1.87751   0.00104   0.00000   0.00490   0.00484   1.88235
   A15        2.12913  -0.00238   0.00000  -0.00602  -0.00599   2.12313
   A16        2.04463   0.00016   0.00000   0.00177   0.00176   2.04638
   A17        2.11495   0.00030   0.00000   0.00230   0.00230   2.11725
   A18        2.12361  -0.00045   0.00000  -0.00406  -0.00406   2.11955
   A19        2.10959   0.00218   0.00000   0.00409   0.00407   2.11366
   A20        2.08872  -0.00071   0.00000  -0.00213  -0.00212   2.08660
   A21        2.08487  -0.00147   0.00000  -0.00196  -0.00195   2.08292
   A22        2.10961   0.00217   0.00000   0.00391   0.00390   2.11351
   A23        2.08489  -0.00147   0.00000  -0.00192  -0.00192   2.08297
   A24        2.08868  -0.00070   0.00000  -0.00199  -0.00198   2.08670
   A25        2.04481   0.00012   0.00000   0.00151   0.00150   2.04631
   A26        2.12355  -0.00044   0.00000  -0.00376  -0.00375   2.11980
   A27        2.11482   0.00031   0.00000   0.00225   0.00225   2.11708
   A28        2.12860  -0.00225   0.00000  -0.00525  -0.00523   2.12337
   A29        1.87843   0.00096   0.00000   0.00621   0.00616   1.88459
   A30        2.27615   0.00129   0.00000  -0.00096  -0.00093   2.27522
   A31        1.85686   0.00019   0.00000  -0.00822  -0.00819   1.84867
   A32        2.25995  -0.01922   0.00000  -0.06749  -0.06750   2.19245
   A33        2.16638   0.01903   0.00000   0.07571   0.07570   2.24207
    D1       -1.02590  -0.00211   0.00000  -0.02355  -0.02398  -1.04989
    D2        2.11569  -0.00211   0.00000  -0.02378  -0.02421   2.09148
    D3        1.02590   0.00210   0.00000   0.02332   0.02375   1.04965
    D4       -2.11569   0.00210   0.00000   0.02309   0.02352  -2.09216
    D5        3.14159  -0.00000   0.00000   0.00001   0.00000  -3.14159
    D6       -0.00000  -0.00000   0.00000  -0.00022  -0.00022  -0.00022
    D7        0.00000  -0.00000   0.00000  -0.00035  -0.00035  -0.00035
    D8        3.14159  -0.00000   0.00000  -0.00037  -0.00037   3.14123
    D9       -3.14159  -0.00000   0.00000  -0.00015  -0.00015   3.14144
   D10       -0.00000  -0.00000   0.00000  -0.00016  -0.00016  -0.00017
   D11        3.14159   0.00000   0.00000   0.00034   0.00034  -3.14126
   D12       -0.00000   0.00000   0.00000   0.00026   0.00026   0.00026
   D13        0.00000   0.00000   0.00000   0.00013   0.00013   0.00013
   D14       -3.14159  -0.00000   0.00000   0.00005   0.00006  -3.14153
   D15        3.14159  -0.00000   0.00000   0.00016   0.00016  -3.14143
   D16        0.00000   0.00000   0.00000   0.00013   0.00013   0.00013
   D17       -0.00000   0.00000   0.00000   0.00014   0.00014   0.00014
   D18        3.14159   0.00000   0.00000   0.00012   0.00012  -3.14148
   D19       -3.14159   0.00000   0.00000  -0.00003  -0.00003   3.14156
   D20        0.00000   0.00000   0.00000  -0.00002  -0.00002  -0.00001
   D21       -0.00000  -0.00000   0.00000   0.00000   0.00000   0.00000
   D22       -3.14159  -0.00000   0.00000   0.00002   0.00002  -3.14158
   D23        3.14159  -0.00000   0.00000  -0.00006  -0.00006   3.14153
   D24       -0.00000   0.00000   0.00000  -0.00005  -0.00005  -0.00005
   D25        0.00000  -0.00000   0.00000  -0.00009  -0.00009  -0.00008
   D26       -3.14159   0.00000   0.00000  -0.00008  -0.00008   3.14151
   D27        0.00000   0.00000   0.00000   0.00007   0.00007   0.00007
   D28       -3.14159   0.00000   0.00000   0.00011   0.00011  -3.14148
   D29        3.14159   0.00000   0.00000   0.00006   0.00006  -3.14154
   D30       -0.00000   0.00000   0.00000   0.00010   0.00010   0.00009
   D31       -0.00000  -0.00000   0.00000  -0.00006  -0.00006  -0.00006
   D32        3.14159  -0.00000   0.00000  -0.00007  -0.00007   3.14152
   D33       -3.14159  -0.00000   0.00000  -0.00010  -0.00010   3.14149
   D34        0.00000  -0.00000   0.00000  -0.00011  -0.00011  -0.00011
   D35       -0.00000   0.00000   0.00000  -0.00002  -0.00002  -0.00002
   D36       -3.14159  -0.00000   0.00000   0.00000   0.00000  -3.14159
   D37        3.14159   0.00000   0.00000  -0.00001  -0.00001   3.14158
   D38        0.00000   0.00000   0.00000   0.00001   0.00001   0.00001
   D39        0.00000  -0.00000   0.00000   0.00009   0.00009   0.00009
   D40       -3.14159  -0.00000   0.00000   0.00008   0.00008  -3.14151
   D41        3.14159   0.00000   0.00000   0.00007   0.00007  -3.14152
   D42       -0.00000  -0.00000   0.00000   0.00006   0.00006   0.00006
   D43       -0.00000  -0.00000   0.00000  -0.00004  -0.00004  -0.00004
   D44       -3.14159   0.00000   0.00000   0.00003   0.00003  -3.14156
   D45        3.14159  -0.00000   0.00000  -0.00004  -0.00004   3.14156
   D46       -0.00000   0.00000   0.00000   0.00004   0.00004   0.00004
         Item               Value     Threshold  Converged?
 Maximum Force            0.023676     0.000450     NO 
 RMS     Force            0.006452     0.000300     NO 
 Maximum Displacement     0.168920     0.001800     NO 
 RMS     Displacement     0.033897     0.001200     NO 
 Predicted change in Energy=-6.277100D-03
 Lowest energy point so far.  Saving SCF results.
 Step   1 in ReCalcFC=50 IGetFC= 0 compute gradient.
 GradGradGradGradGradGradGradGradGradGradGradGradGradGradGradGradGradGrad

 Leave Link  103 at Wed Feb 28 19:49:38 2024, MaxMem=  2147483648 cpu:               6.5 elap:               0.3
 (Enter /software/gaussian-16RevA.03-el7-x86_64/g16/l202.exe)
                          Input orientation:                          
 ---------------------------------------------------------------------
 Center     Atomic      Atomic             Coordinates (Angstroms)
 Number     Number       Type             X           Y           Z
 ---------------------------------------------------------------------
      1          6           0       -3.186553    0.257328    0.218385
      2          7           0       -1.749367    0.148273    0.122201
      3          6           0       -1.092304   -1.020906   -0.245013
      4          8           0       -1.632250   -2.063388   -0.521400
      5          6           0        0.363151   -0.701486   -0.218829
      6          6           0        1.463700   -1.495258   -0.497988
      7          6           0        2.727945   -0.902085   -0.384115
      8          6           0        2.866331    0.437187   -0.003611
      9          6           0        1.745135    1.229549    0.276092
     10          6           0        0.500894    0.631498    0.159799
     11          6           0       -0.863159    1.189791    0.382814
     12          8           0       -1.170922    2.306259    0.719085
     13          1           0       -3.652131    0.042153   -0.756100
     14          1           0       -3.574795   -0.454607    0.963413
     15          1           0       -3.429989    1.283469    0.525672
     16          1           0        1.349270   -2.540308   -0.794554
     17          1           0        3.622193   -1.493935   -0.595714
     18          1           0        3.866499    0.870764    0.076239
     19          1           0        1.846352    2.275700    0.573625
 ---------------------------------------------------------------------
                    Distance matrix (angstroms):
                    1          2          3          4          5
     1  C    0.000000
     2  N    1.444523   0.000000
     3  C    2.496897   1.390524   0.000000
     4  O    2.889440   2.306379   1.206109   0.000000
     5  C    3.702820   2.302417   1.490324   2.434738   0.000000
     6  C    5.020916   3.661916   2.611927   3.147733   1.385357
     7  C    6.057106   4.626655   3.824627   4.514285   2.379036
     8  C    6.059623   4.626443   4.225530   5.172833   2.758406
     9  C    5.026936   3.661200   3.658847   4.783947   2.425638
    10  C    3.706845   2.301868   2.330792   3.503819   1.392544
    11  C    2.508920   1.392136   2.309513   3.462986   2.332967
    12  O    2.917462   2.312525   3.464923   4.565680   3.504224
    13  H    1.101219   2.098376   2.818513   2.927167   4.118755
    14  H    1.101204   2.098401   2.818465   2.926829   4.118988
    15  H    1.098477   2.067837   3.371776   3.940772   4.345370
    16  H    5.424620   4.203625   2.927774   3.031753   2.164522
    17  H    7.077337   5.662677   4.751130   5.285732   3.375111
    18  H    7.081105   5.662337   5.317081   6.261203   3.851297
    19  H    5.434165   4.202252   4.491490   5.668107   3.419284
                    6          7          8          9         10
     6  C    0.000000
     7  C    1.401120   0.000000
     8  C    2.438467   1.399136   0.000000
     9  C    2.846572   2.438370   1.401125   0.000000
    10  C    2.425442   2.758166   2.379024   1.385397   0.000000
    11  C    3.660542   4.226128   3.824243   2.610780   1.490660
    12  O    4.782679   5.168334   4.507231   3.139894   2.431582
    13  H    5.348082   6.460289   6.573632   5.621904   4.293462
    14  H    5.348371   6.460696   6.574080   5.622317   4.293793
    15  H    5.719912   6.597311   6.374950   5.181420   4.001346
    16  H    1.092326   2.180133   3.434026   3.938884   3.419194
    17  H    2.160704   1.093042   2.156652   3.420637   3.851075
    18  H    3.420707   2.156669   1.093024   2.160753   3.375134
    19  H    3.938896   3.434063   2.180296   1.092339   2.164465
                   11         12         13         14         15
    11  C    0.000000
    12  O    1.205942   0.000000
    13  H    3.223749   3.668616   0.000000
    14  H    3.223989   3.668880   1.791501   0.000000
    15  H    2.572508   2.487346   1.798097   1.798192   0.000000
    16  H    4.493848   5.668481   5.628907   5.629121   6.261436
    17  H    5.317733   6.256526   7.436469   7.436916   7.661903
    18  H    4.750309   5.277263   7.609808   7.610292   7.321957
    19  H    2.925245   3.020932   6.081958   6.082380   5.369040
                   16         17         18         19
    16  H    0.000000
    17  H    2.510102   0.000000
    18  H    4.327833   2.470427   0.000000
    19  H    5.031196   4.327946   2.510425   0.000000
 Symmetry turned off by external request.
 Stoichiometry    C9H7NO2
 Framework group  C1[X(C9H7NO2)]
 Deg. of freedom    51
 Full point group                 C1      NOp   1
 Rotational constants (GHZ):           1.7439345           0.8668159           0.5811713
 Leave Link  202 at Wed Feb 28 19:49:38 2024, MaxMem=  2147483648 cpu:               0.4 elap:               0.0
 (Enter /software/gaussian-16RevA.03-el7-x86_64/g16/l301.exe)
 Standard basis: def2SVPP (5D, 7F)
 Ernie: Thresh=  0.10000D-02 Tol=  0.10000D-05 Strict=F.
   182 basis functions,   328 primitive gaussians,   194 cartesian basis functions
    42 alpha electrons       42 beta electrons
       nuclear repulsion energy       657.0619652205 Hartrees.
 IExCor= 4639 DFT=T Ex+Corr=wB97XD ExCW=0 ScaHFX=  1.000000
 ScaDFX=  1.000000  1.000000  1.000000  1.000000 ScalE2=  1.000000  1.000000
 IRadAn=      5 IRanWt=     -1 IRanGd=            0 ICorTp=0 IEmpDi=121
 HFx  wShort=  0.000000 wLong=  0.200000 cFull=  0.222036 cShort=  0.000000 cLong=  0.777964
 DFx  wShort=  0.000000 wLong=  0.200000 cFull=  0.000000 cShort=  0.000000 cLong=  1.000000
 NAtoms=   19 NActive=   19 NUniq=   19 SFac= 1.00D+00 NAtFMM=   60 NAOKFM=F Big=F
 Integral buffers will be    131072 words long.
 Raffenetti 2 integral format.
 Two-electron integral symmetry is turned off.
 R6Disp:  Grimme-D2 Dispersion energy=       -0.0100275308 Hartrees.
 Nuclear repulsion after empirical dispersion term =      657.0519376897 Hartrees.
 Force inversion solution in PCM.
 ------------------------------------------------------------------------------
 Polarizable Continuum Model (PCM)
 =================================
 Model                : PCM.
 Atomic radii         : UFF (Universal Force Field).
 Polarization charges : Total charges.
 Charge compensation  : None.
 Solution method      : Matrix inversion.
 Cavity type          : Scaled VdW (van der Waals Surface) (Alpha=1.100).
 Cavity algorithm     : GePol (No added spheres)
                        Default sphere list used, NSphG=   19.
                        Lebedev-Laikov grids with approx.  5.0 points / Ang**2.
                        Smoothing algorithm: York/Karplus (Gamma=1.0000).
                        Polarization charges: spherical gaussians, with
                                              point-specific exponents (IZeta= 3).
                        Self-potential: point-specific (ISelfS= 7).
                        Self-field    : sphere-specific E.n sum rule (ISelfD= 2).
 1st derivatives      : Analytical E(r).r(x)/FMM algorithm (CHGder, D1EAlg=3).
                        Cavity 1st derivative terms included.
 Solvent              : n,n-DiMethylFormamide, Eps=  37.219000 Eps(inf)=   2.046330
 ------------------------------------------------------------------------------
 Spheres list:
 ISph  on   Nord     Re0    Alpha      Xe            Ye            Ze
    1   C      1    1.9255  1.100     -3.186553      0.257328      0.218385
    2   N      2    1.8300  1.100     -1.749367      0.148273      0.122201
    3   C      3    1.9255  1.100     -1.092304     -1.020906     -0.245013
    4   O      4    1.7500  1.100     -1.632250     -2.063388     -0.521400
    5   C      5    1.9255  1.100      0.363151     -0.701486     -0.218829
    6   C      6    1.9255  1.100      1.463700     -1.495258     -0.497988
    7   C      7    1.9255  1.100      2.727945     -0.902085     -0.384115
    8   C      8    1.9255  1.100      2.866331      0.437187     -0.003611
    9   C      9    1.9255  1.100      1.745135      1.229549      0.276092
   10   C     10    1.9255  1.100      0.500894      0.631498      0.159799
   11   C     11    1.9255  1.100     -0.863159      1.189791      0.382814
   12   O     12    1.7500  1.100     -1.170922      2.306259      0.719085
   13   H     13    1.4430  1.100     -3.652131      0.042153     -0.756100
   14   H     14    1.4430  1.100     -3.574795     -0.454607      0.963413
   15   H     15    1.4430  1.100     -3.429989      1.283469      0.525672
   16   H     16    1.4430  1.100      1.349270     -2.540308     -0.794554
   17   H     17    1.4430  1.100      3.622193     -1.493935     -0.595714
   18   H     18    1.4430  1.100      3.866499      0.870764      0.076239
   19   H     19    1.4430  1.100      1.846352      2.275700      0.573625
 ------------------------------------------------------------------------------
 GePol: Number of generator spheres                  =      19
 GePol: Total number of spheres                      =      19
 GePol: Number of exposed spheres                    =      19 (100.00%)
 GePol: Number of points                             =    1659
 GePol: Average weight of points                     =       0.13
 GePol: Minimum weight of points                     =   0.40D-09
 GePol: Maximum weight of points                     =    0.20577
 GePol: Number of points with low weight             =      97
 GePol: Fraction of low-weight points (<1% of avg)   =       5.85%
 GePol: Cavity surface area                          =    215.915 Ang**2
 GePol: Cavity volume                                =    219.043 Ang**3
 Leave Link  301 at Wed Feb 28 19:49:38 2024, MaxMem=  2147483648 cpu:               4.5 elap:               0.2
 (Enter /software/gaussian-16RevA.03-el7-x86_64/g16/l302.exe)
 NPDir=0 NMtPBC=     1 NCelOv=     1 NCel=       1 NClECP=     1 NCelD=      1
         NCelK=      1 NCelE2=     1 NClLst=     1 CellRange=     0.0.
 One-electron integrals computed using PRISM.
   1 Symmetry operations used in ECPInt.
 ECPInt:  NShTT=    3741 NPrTT=   15055 LenC2=    3665 LenP2D=   11028.
 LDataN:  DoStor=T MaxTD1= 4 Len=   56
 NBasis=   182 RedAO= T EigKep=  2.78D-04  NBF=   182
 NBsUse=   182 1.00D-06 EigRej= -1.00D+00 NBFU=   182
 Precomputing XC quadrature grid using
 IXCGrd= 4 IRadAn=           5 IRanWt=          -1 IRanGd=           0 AccXCQ= 0.00D+00.
 Generated NRdTot=       0 NPtTot=           0 NUsed=           0 NTot=          32
 NSgBfM=   193   193   193   193   193 MxSgAt=    19 MxSgA2=    19.
 Leave Link  302 at Wed Feb 28 19:49:38 2024, MaxMem=  2147483648 cpu:               6.5 elap:               0.3
 (Enter /software/gaussian-16RevA.03-el7-x86_64/g16/l303.exe)
 DipDrv:  MaxL=1.
 Leave Link  303 at Wed Feb 28 19:49:38 2024, MaxMem=  2147483648 cpu:               1.6 elap:               0.1
 (Enter /software/gaussian-16RevA.03-el7-x86_64/g16/l401.exe)
 Initial guess from the checkpoint file:  "NMPHTH-cavity-in-DMF-wB97XD.chk"
 B after Tr=    -0.016009   -0.004739   -0.000463
         Rot=    1.000000   -0.000017    0.000207   -0.000778 Ang=  -0.09 deg.
 Guess basis will be translated and rotated to current coordinates.
 JPrj=2 DoOrth=T DoCkMO=T.
 Generating alternative initial guess.
 ExpMin= 1.22D-01 ExpMax= 2.27D+03 ExpMxC= 3.41D+02 IAcc=2 IRadAn=         4 AccDes= 0.00D+00
 Harris functional with IExCor= 4639 and IRadAn=       4 diagonalized for initial guess.
 HarFok:  IExCor= 4639 AccDes= 0.00D+00 IRadAn=         4 IDoV= 1 UseB2=F ITyADJ=14
 ICtDFT=  3500011 ScaDFX=  1.000000  1.000000  1.000000  1.000000
 FoFCou: FMM=F IPFlag=           0 FMFlag=      100000 FMFlg1=           0
         NFxFlg=           0 DoJE=T BraDBF=F KetDBF=T FulRan=T
         wScrn=  0.000000 ICntrl=       500 IOpCl=  0 I1Cent=   200000004 NGrid=           0
         NMat0=    1 NMatS0=      1 NMatT0=    0 NMatD0=    1 NMtDS0=    0 NMtDT0=    0
 Symmetry not used in FoFCou.
 Harris En= -528.818556628594    
 Leave Link  401 at Wed Feb 28 19:49:39 2024, MaxMem=  2147483648 cpu:              10.4 elap:               0.4
 (Enter /software/gaussian-16RevA.03-el7-x86_64/g16/l502.exe)
 Two-electron integral symmetry not used.
 Closed shell SCF:
 Using DIIS extrapolation, IDIIS=  1040.
 NGot=  2147483648 LenX=  2147401213 LenY=  2147363136
 Requested convergence on RMS density matrix=1.00D-08 within  32 cycles.
 Requested convergence on MAX density matrix=1.00D-06.
 Requested convergence on             energy=1.00D-06.
 No special actions if energy rises.
 Fock matrices will be formed incrementally for  20 cycles.

 Cycle   1  Pass 1  IDiag  1:
 FoFJK:  IHMeth= 1 ICntrl=       0 DoSepK=T KAlg= 0 I1Cent=           0 FoldK=F
 IRaf=         1 NMat=       1 IRICut=       1 DoRegI=T DoRafI=F ISym2E= 0 IDoP0=0 IntGTp=1.
 FoFCou: FMM=F IPFlag=           0 FMFlag=      100000 FMFlg1=           0
         NFxFlg=           0 DoJE=T BraDBF=F KetDBF=F FulRan=T
         wScrn=  0.000000 ICntrl=       500 IOpCl=  0 I1Cent=           0 NGrid=           0
         NMat0=    1 NMatS0=      1 NMatT0=    0 NMatD0=    1 NMtDS0=    0 NMtDT0=    0
 Symmetry not used in FoFCou.
 Inv3:  Mode=1 IEnd=     8256843.
 Iteration    1 A*A^-1 deviation from unit magnitude is 3.55D-15 for    380.
 Iteration    1 A*A^-1 deviation from orthogonality  is 2.33D-15 for   1616    371.
 Iteration    1 A^-1*A deviation from unit magnitude is 3.00D-15 for    471.
 Iteration    1 A^-1*A deviation from orthogonality  is 3.34D-15 for   1163    695.
 E= -551.815376562163    
 DIIS: error= 6.28D-03 at cycle   1 NSaved=   1.
 NSaved= 1 IEnMin= 1 EnMin= -551.815376562163     IErMin= 1 ErrMin= 6.28D-03
 ErrMax= 6.28D-03  0.00D+00 EMaxC= 1.00D-01 BMatC= 6.98D-03 BMatP= 6.98D-03
 IDIUse=3 WtCom= 9.37D-01 WtEn= 6.28D-02
 Coeff-Com:  0.100D+01
 Coeff-En:   0.100D+01
 Coeff:      0.100D+01
 Gap=     0.824 Goal=   None    Shift=    0.000
 GapD=    0.824 DampG=2.000 DampE=1.000 DampFc=2.0000 IDamp=-1.
 RMSDP=8.42D-04 MaxDP=2.45D-02              OVMax= 1.64D-02

 Cycle   2  Pass 1  IDiag  1:
 RMSU=  8.32D-04    CP:  9.95D-01
 E= -551.821650037937     Delta-E=       -0.006273475773 Rises=F Damp=F
 DIIS: error= 1.81D-03 at cycle   2 NSaved=   2.
 NSaved= 2 IEnMin= 2 EnMin= -551.821650037937     IErMin= 2 ErrMin= 1.81D-03
 ErrMax= 1.81D-03  0.00D+00 EMaxC= 1.00D-01 BMatC= 5.60D-04 BMatP= 6.98D-03
 IDIUse=3 WtCom= 9.82D-01 WtEn= 1.81D-02
 Coeff-Com:  0.281D-01 0.972D+00
 Coeff-En:   0.000D+00 0.100D+01
 Coeff:      0.276D-01 0.972D+00
 Gap=     0.329 Goal=   None    Shift=    0.000
 RMSDP=2.45D-04 MaxDP=6.72D-03 DE=-6.27D-03 OVMax= 1.02D-02

 Cycle   3  Pass 1  IDiag  1:
 RMSU=  2.41D-04    CP:  9.96D-01  1.04D+00
 E= -551.821555184212     Delta-E=        0.000094853724 Rises=F Damp=F
 DIIS: error= 2.40D-03 at cycle   3 NSaved=   3.
 NSaved= 3 IEnMin= 2 EnMin= -551.821650037937     IErMin= 2 ErrMin= 1.81D-03
 ErrMax= 2.40D-03  0.00D+00 EMaxC= 1.00D-01 BMatC= 8.71D-04 BMatP= 5.60D-04
 IDIUse=3 WtCom= 1.70D-01 WtEn= 8.30D-01
 Coeff-Com: -0.647D-01 0.592D+00 0.473D+00
 Coeff-En:   0.000D+00 0.543D+00 0.457D+00
 Coeff:     -0.110D-01 0.552D+00 0.459D+00
 Gap=     0.327 Goal=   None    Shift=    0.000
 RMSDP=1.56D-04 MaxDP=4.50D-03 DE= 9.49D-05 OVMax= 7.23D-03

 Cycle   4  Pass 1  IDiag  1:
 RMSU=  6.96D-05    CP:  9.95D-01  1.10D+00  4.68D-01
 E= -551.822210177990     Delta-E=       -0.000654993778 Rises=F Damp=F
 DIIS: error= 2.72D-04 at cycle   4 NSaved=   4.
 NSaved= 4 IEnMin= 4 EnMin= -551.822210177990     IErMin= 4 ErrMin= 2.72D-04
 ErrMax= 2.72D-04  0.00D+00 EMaxC= 1.00D-01 BMatC= 1.37D-05 BMatP= 5.60D-04
 IDIUse=3 WtCom= 9.97D-01 WtEn= 2.72D-03
 Coeff-Com: -0.946D-02-0.408D-01 0.841D-01 0.966D+00
 Coeff-En:   0.000D+00 0.000D+00 0.000D+00 0.100D+01
 Coeff:     -0.944D-02-0.406D-01 0.839D-01 0.966D+00
 Gap=     0.327 Goal=   None    Shift=    0.000
 RMSDP=2.89D-05 MaxDP=5.50D-04 DE=-6.55D-04 OVMax= 9.80D-04

 Cycle   5  Pass 1  IDiag  1:
 RMSU=  1.73D-05    CP:  9.95D-01  1.11D+00  5.50D-01  1.15D+00
 E= -551.822223468985     Delta-E=       -0.000013290995 Rises=F Damp=F
 DIIS: error= 5.62D-05 at cycle   5 NSaved=   5.
 NSaved= 5 IEnMin= 5 EnMin= -551.822223468985     IErMin= 5 ErrMin= 5.62D-05
 ErrMax= 5.62D-05  0.00D+00 EMaxC= 1.00D-01 BMatC= 6.73D-07 BMatP= 1.37D-05
 IDIUse=1 WtCom= 1.00D+00 WtEn= 0.00D+00
 Coeff-Com:  0.740D-04-0.465D-01 0.483D-02 0.334D+00 0.708D+00
 Coeff:      0.740D-04-0.465D-01 0.483D-02 0.334D+00 0.708D+00
 Gap=     0.327 Goal=   None    Shift=    0.000
 RMSDP=7.06D-06 MaxDP=1.36D-04 DE=-1.33D-05 OVMax= 4.33D-04

 Cycle   6  Pass 1  IDiag  1:
 RMSU=  5.16D-06    CP:  9.95D-01  1.11D+00  5.61D-01  1.20D+00  9.69D-01
 E= -551.822224246702     Delta-E=       -0.000000777717 Rises=F Damp=F
 DIIS: error= 1.95D-05 at cycle   6 NSaved=   6.
 NSaved= 6 IEnMin= 6 EnMin= -551.822224246702     IErMin= 6 ErrMin= 1.95D-05
 ErrMax= 1.95D-05  0.00D+00 EMaxC= 1.00D-01 BMatC= 6.03D-08 BMatP= 6.73D-07
 IDIUse=1 WtCom= 1.00D+00 WtEn= 0.00D+00
 Coeff-Com:  0.883D-03-0.118D-01-0.675D-02 0.171D-01 0.228D+00 0.772D+00
 Coeff:      0.883D-03-0.118D-01-0.675D-02 0.171D-01 0.228D+00 0.772D+00
 Gap=     0.327 Goal=   None    Shift=    0.000
 RMSDP=2.59D-06 MaxDP=4.89D-05 DE=-7.78D-07 OVMax= 1.90D-04

 Cycle   7  Pass 1  IDiag  1:
 RMSU=  1.78D-06    CP:  9.95D-01  1.11D+00  5.63D-01  1.22D+00  1.05D+00
                    CP:  1.05D+00
 E= -551.822224359630     Delta-E=       -0.000000112928 Rises=F Damp=F
 DIIS: error= 1.23D-05 at cycle   7 NSaved=   7.
 NSaved= 7 IEnMin= 7 EnMin= -551.822224359630     IErMin= 7 ErrMin= 1.23D-05
 ErrMax= 1.23D-05  0.00D+00 EMaxC= 1.00D-01 BMatC= 6.10D-09 BMatP= 6.03D-08
 IDIUse=1 WtCom= 1.00D+00 WtEn= 0.00D+00
 Coeff-Com:  0.151D-03 0.231D-02-0.141D-02-0.270D-01-0.303D-01 0.111D+00
 Coeff-Com:  0.945D+00
 Coeff:      0.151D-03 0.231D-02-0.141D-02-0.270D-01-0.303D-01 0.111D+00
 Coeff:      0.945D+00
 Gap=     0.327 Goal=   None    Shift=    0.000
 RMSDP=1.26D-06 MaxDP=2.37D-05 DE=-1.13D-07 OVMax= 1.13D-04

 Cycle   8  Pass 1  IDiag  1:
 RMSU=  7.22D-07    CP:  9.95D-01  1.11D+00  5.64D-01  1.23D+00  1.08D+00
                    CP:  1.18D+00  1.28D+00
 E= -551.822224385020     Delta-E=       -0.000000025391 Rises=F Damp=F
 DIIS: error= 3.80D-06 at cycle   8 NSaved=   8.
 NSaved= 8 IEnMin= 8 EnMin= -551.822224385020     IErMin= 8 ErrMin= 3.80D-06
 ErrMax= 3.80D-06  0.00D+00 EMaxC= 1.00D-01 BMatC= 2.68D-09 BMatP= 6.10D-09
 IDIUse=1 WtCom= 1.00D+00 WtEn= 0.00D+00
 Coeff-Com: -0.129D-03 0.369D-02 0.998D-03-0.154D-01-0.661D-01-0.132D+00
 Coeff-Com:  0.439D+00 0.770D+00
 Coeff:     -0.129D-03 0.369D-02 0.998D-03-0.154D-01-0.661D-01-0.132D+00
 Coeff:      0.439D+00 0.770D+00
 Gap=     0.327 Goal=   None    Shift=    0.000
 RMSDP=6.72D-07 MaxDP=1.30D-05 DE=-2.54D-08 OVMax= 5.92D-05

 Cycle   9  Pass 1  IDiag  1:
 RMSU=  3.55D-07    CP:  9.95D-01  1.11D+00  5.64D-01  1.23D+00  1.09D+00
                    CP:  1.23D+00  1.52D+00  1.12D+00
 E= -551.822224392917     Delta-E=       -0.000000007896 Rises=F Damp=F
 DIIS: error= 1.73D-06 at cycle   9 NSaved=   9.
 NSaved= 9 IEnMin= 9 EnMin= -551.822224392917     IErMin= 9 ErrMin= 1.73D-06
 ErrMax= 1.73D-06  0.00D+00 EMaxC= 1.00D-01 BMatC= 3.56D-10 BMatP= 2.68D-09
 IDIUse=1 WtCom= 1.00D+00 WtEn= 0.00D+00
 Coeff-Com: -0.670D-04 0.707D-03 0.579D-03 0.679D-04-0.152D-01-0.617D-01
 Coeff-Com: -0.332D-01 0.225D+00 0.884D+00
 Coeff:     -0.670D-04 0.707D-03 0.579D-03 0.679D-04-0.152D-01-0.617D-01
 Coeff:     -0.332D-01 0.225D+00 0.884D+00
 Gap=     0.327 Goal=   None    Shift=    0.000
 RMSDP=3.09D-07 MaxDP=6.58D-06 DE=-7.90D-09 OVMax= 2.86D-05

 Cycle  10  Pass 1  IDiag  1:
 RMSU=  1.48D-07    CP:  9.95D-01  1.11D+00  5.64D-01  1.23D+00  1.09D+00
                    CP:  1.25D+00  1.61D+00  1.36D+00  1.25D+00
 E= -551.822224394335     Delta-E=       -0.000000001419 Rises=F Damp=F
 DIIS: error= 9.56D-07 at cycle  10 NSaved=  10.
 NSaved=10 IEnMin=10 EnMin= -551.822224394335     IErMin=10 ErrMin= 9.56D-07
 ErrMax= 9.56D-07  0.00D+00 EMaxC= 1.00D-01 BMatC= 8.80D-11 BMatP= 3.56D-10
 IDIUse=1 WtCom= 1.00D+00 WtEn= 0.00D+00
 Coeff-Com:  0.182D-05-0.583D-03 0.259D-04 0.373D-02 0.893D-02 0.373D-02
 Coeff-Com: -0.119D+00-0.968D-01 0.376D+00 0.823D+00
 Coeff:      0.182D-05-0.583D-03 0.259D-04 0.373D-02 0.893D-02 0.373D-02
 Coeff:     -0.119D+00-0.968D-01 0.376D+00 0.823D+00
 Gap=     0.327 Goal=   None    Shift=    0.000
 RMSDP=1.49D-07 MaxDP=2.99D-06 DE=-1.42D-09 OVMax= 1.62D-05

 Cycle  11  Pass 1  IDiag  1:
 RMSU=  4.88D-08    CP:  9.95D-01  1.11D+00  5.64D-01  1.23D+00  1.09D+00
                    CP:  1.25D+00  1.65D+00  1.47D+00  1.49D+00  9.96D-01
 E= -551.822224394593     Delta-E=       -0.000000000258 Rises=F Damp=F
 DIIS: error= 1.20D-07 at cycle  11 NSaved=  11.
 NSaved=11 IEnMin=11 EnMin= -551.822224394593     IErMin=11 ErrMin= 1.20D-07
 ErrMax= 1.20D-07  0.00D+00 EMaxC= 1.00D-01 BMatC= 3.30D-12 BMatP= 8.80D-11
 IDIUse=1 WtCom= 1.00D+00 WtEn= 0.00D+00
 Coeff-Com:  0.600D-05-0.140D-03-0.412D-04 0.501D-03 0.256D-02 0.603D-02
 Coeff-Com: -0.114D-01-0.339D-01-0.270D-01 0.113D+00 0.950D+00
 Coeff:      0.600D-05-0.140D-03-0.412D-04 0.501D-03 0.256D-02 0.603D-02
 Coeff:     -0.114D-01-0.339D-01-0.270D-01 0.113D+00 0.950D+00
 Gap=     0.327 Goal=   None    Shift=    0.000
 RMSDP=3.33D-08 MaxDP=7.32D-07 DE=-2.58D-10 OVMax= 2.60D-06

 Cycle  12  Pass 1  IDiag  1:
 RMSU=  1.28D-08    CP:  9.95D-01  1.11D+00  5.64D-01  1.23D+00  1.09D+00
                    CP:  1.25D+00  1.66D+00  1.49D+00  1.53D+00  1.11D+00
                    CP:  1.21D+00
 E= -551.822224394598     Delta-E=       -0.000000000005 Rises=F Damp=F
 DIIS: error= 1.08D-07 at cycle  12 NSaved=  12.
 NSaved=12 IEnMin=12 EnMin= -551.822224394598     IErMin=12 ErrMin= 1.08D-07
 ErrMax= 1.08D-07  0.00D+00 EMaxC= 1.00D-01 BMatC= 7.67D-13 BMatP= 3.30D-12
 IDIUse=1 WtCom= 1.00D+00 WtEn= 0.00D+00
 Coeff-Com:  0.205D-05-0.694D-06-0.157D-04-0.144D-03 0.212D-03 0.193D-02
 Coeff-Com:  0.667D-02-0.559D-02-0.454D-01-0.228D-01 0.382D+00 0.683D+00
 Coeff:      0.205D-05-0.694D-06-0.157D-04-0.144D-03 0.212D-03 0.193D-02
 Coeff:      0.667D-02-0.559D-02-0.454D-01-0.228D-01 0.382D+00 0.683D+00
 Gap=     0.327 Goal=   None    Shift=    0.000
 RMSDP=8.33D-09 MaxDP=2.64D-07 DE=-5.00D-12 OVMax= 6.80D-07

 Error on total polarization charges =  0.00722
 SCF Done:  E(RwB97XD) =  -551.822224395     A.U. after   12 cycles
            NFock= 12  Conv=0.83D-08     -V/T= 2.0094
 KE= 5.466869221655D+02 PE=-2.598484584160D+03 EE= 8.429234999107D+02
 Leave Link  502 at Wed Feb 28 19:49:50 2024, MaxMem=  2147483648 cpu:             318.5 elap:              11.7
 (Enter /software/gaussian-16RevA.03-el7-x86_64/g16/l508.exe)
 QCSCF skips out because SCF is already converged.
 Leave Link  508 at Wed Feb 28 19:49:50 2024, MaxMem=  2147483648 cpu:               0.4 elap:               0.0
 (Enter /software/gaussian-16RevA.03-el7-x86_64/g16/l801.exe)
 DoSCS=F DFT=T ScalE2(SS,OS)=  1.000000  1.000000
 Range of M.O.s used for correlation:     1   182
 NBasis=   182 NAE=    42 NBE=    42 NFC=     0 NFV=     0
 NROrb=    182 NOA=    42 NOB=    42 NVA=   140 NVB=   140

 **** Warning!!: The largest alpha MO coefficient is  0.16827135D+02

 Leave Link  801 at Wed Feb 28 19:49:50 2024, MaxMem=  2147483648 cpu:               0.7 elap:               0.0
 (Enter /software/gaussian-16RevA.03-el7-x86_64/g16/l1101.exe)
 Leave Link 1101 at Wed Feb 28 19:49:51 2024, MaxMem=  2147483648 cpu:               2.7 elap:               0.2
 (Enter /software/gaussian-16RevA.03-el7-x86_64/g16/l1102.exe)
 Symmetrizing basis deriv contribution to polar:
 IMax=3 JMax=2 DiffMx= 0.00D+00
 Leave Link 1102 at Wed Feb 28 19:49:51 2024, MaxMem=  2147483648 cpu:               0.7 elap:               0.0
 (Enter /software/gaussian-16RevA.03-el7-x86_64/g16/l1110.exe)
 Leave Link 1110 at Wed Feb 28 19:49:51 2024, MaxMem=  2147483648 cpu:               1.1 elap:               0.1
 (Enter /software/gaussian-16RevA.03-el7-x86_64/g16/l1002.exe)
 Minotr:  Closed shell wavefunction.
 Leave Link 1002 at Wed Feb 28 19:49:51 2024, MaxMem=  2147483648 cpu:               0.5 elap:               0.0
 (Enter /software/gaussian-16RevA.03-el7-x86_64/g16/l701.exe)
 ... and contract with generalized density number  0.
 Compute integral first derivatives.
 R6Disp: Adding Grimme-D2 dispersion energy 1st derivatives to the gradient.
   1 Symmetry operations used in ECPInt.
 ECPInt:  NShTT=    3741 NPrTT=   15055 LenC2=    3665 LenP2D=   11028.
 LDataN:  DoStor=T MaxTD1= 5 Len=  102
 D1PCM: PCM CHGder 1st derivatives, ID1Alg=3 FixD1E=F DoIter=F DoCFld=F I1PDM=0.
 GePol: Maximum number of non-zero 1st derivatives   =     213
 Leave Link  701 at Wed Feb 28 19:49:52 2024, MaxMem=  2147483648 cpu:              19.6 elap:               0.7
 (Enter /software/gaussian-16RevA.03-el7-x86_64/g16/l702.exe)
 L702 exits ... SP integral derivatives will be done elsewhere.
 Leave Link  702 at Wed Feb 28 19:49:52 2024, MaxMem=  2147483648 cpu:               0.5 elap:               0.0
 (Enter /software/gaussian-16RevA.03-el7-x86_64/g16/l703.exe)
 Integral derivatives from FoFJK, PRISM(SPDF).
 Compute integral first derivatives, UseDBF=F ICtDFT=           0.
 Calling FoFJK, ICntrl=      2127 FMM=F ISym2X=0 I1Cent= 0 IOpClX= 0 NMat=1 NMatS=1 NMatT=0.
 FoFJK:  IHMeth= 1 ICntrl=    2127 DoSepK=T KAlg= 0 I1Cent=           0 FoldK=F
 IRaf=         1 NMat=       1 IRICut=       1 DoRegI=T DoRafI=F ISym2E= 0 IDoP0=0 IntGTp=1.
 FoFCou: FMM=F IPFlag=           0 FMFlag=      100000 FMFlg1=         800
         NFxFlg=           0 DoJE=F BraDBF=F KetDBF=F FulRan=T
         wScrn=  0.000000 ICntrl=      2527 IOpCl=  0 I1Cent=           0 NGrid=           0
         NMat0=    1 NMatS0=      1 NMatT0=    0 NMatD0=    1 NMtDS0=    0 NMtDT0=    0
 Symmetry not used in FoFCou.
 Leave Link  703 at Wed Feb 28 19:49:53 2024, MaxMem=  2147483648 cpu:              51.8 elap:               1.9
 (Enter /software/gaussian-16RevA.03-el7-x86_64/g16/l716.exe)
 Dipole        = 1.14138245D+00-8.56062640D-02-7.68067893D-02
 Polarizability= 0.00000000D+00 0.00000000D+00 0.00000000D+00
                 0.00000000D+00 0.00000000D+00 0.00000000D+00
 -------------------------------------------------------------------
 Center     Atomic                   Forces (Hartrees/Bohr)
 Number     Number              X              Y              Z
 -------------------------------------------------------------------
      1        6           0.000171397   -0.001409071   -0.000425163
      2        7          -0.002047721    0.000522834    0.000255761
      3        6           0.000076865   -0.002487466   -0.000713288
      4        8          -0.001504556   -0.000812474   -0.000171699
      5        6           0.002054960    0.000782850    0.000137603
      6        6           0.000204816    0.000188718    0.000042861
      7        6          -0.000090405    0.000028062    0.000014093
      8        6          -0.000102630   -0.000008451    0.000001060
      9        6           0.000150334   -0.000198052   -0.000066024
     10        6           0.001829586   -0.001110525   -0.000405786
     11        6           0.000748700    0.002678765    0.000722954
     12        8          -0.001203396    0.001016289    0.000357207
     13        1          -0.000355586    0.000389949   -0.000241424
     14        1          -0.000324034    0.000192318    0.000444651
     15        1           0.000097244    0.000253372    0.000069931
     16        1           0.000003803   -0.000233595   -0.000065589
     17        1           0.000110260   -0.000080731   -0.000030379
     18        1           0.000123385    0.000065508    0.000013432
     19        1           0.000056979    0.000221699    0.000059802
 -------------------------------------------------------------------
 Cartesian Forces:  Max     0.002678765 RMS     0.000815691
 Leave Link  716 at Wed Feb 28 19:49:54 2024, MaxMem=  2147483648 cpu:               2.3 elap:               0.1
 (Enter /software/gaussian-16RevA.03-el7-x86_64/g16/l103.exe)

 GradGradGradGradGradGradGradGradGradGradGradGradGradGradGradGradGradGrad
 Berny optimization.
 Using GEDIIS/GDIIS optimizer.
 FormGI is forming the generalized inverse of G from B-inverse, IUseBI=4.
 Internal  Forces:  Max     0.002605143 RMS     0.000611164
 Step   2 in ReCalcFC=50 IGetFC= 0 update Hessian.
 Search for a local minimum.
 Step number   2 out of a maximum of  114
 All quantities printed in internal units (Hartrees-Bohrs-Radians)
 RMS Force = .61116D-03 SwitMx=.10000D-02 MixMth= 2
 Mixed Optimization -- En-DIIS/RFO-DIIS
 Update second derivatives using D2CorX and points    1    2
 DE= -6.41D-03 DEPred=-6.28D-03 R= 1.02D+00
 TightC=F SS=  1.41D+00  RLast= 2.02D-01 DXNew= 5.0454D-01 6.0664D-01
 Trust test= 1.02D+00 RLast= 2.02D-01 DXMaxT set to 5.05D-01
 ITU=  1  0
 Use linear search instead of GDIIS.
     Eigenvalues ---   -0.00002   0.00617   0.01006   0.01480   0.01579
     Eigenvalues ---    0.01799   0.01860   0.02151   0.02430   0.02713
     Eigenvalues ---    0.03030   0.03199   0.04334   0.04945   0.06042
     Eigenvalues ---    0.06156   0.10727   0.10761   0.12095   0.12460
     Eigenvalues ---    0.13491   0.14824   0.16738   0.18302   0.18691
     Eigenvalues ---    0.19200   0.19626   0.20579   0.24072   0.24424
     Eigenvalues ---    0.25562   0.28382   0.30250   0.35527   0.35871
     Eigenvalues ---    0.36031   0.36776   0.37388   0.37494   0.38029
     Eigenvalues ---    0.38118   0.38650   0.39131   0.41296   0.43743
     Eigenvalues ---    0.43831   0.49301   0.51078   0.53861   0.85869
     Eigenvalues ---    0.87942
 Eigenvalue     1 is  -2.03D-05 should be greater than     0.000000 Eigenvector:
                          D6        D4        D2        D5        D3
   1                    0.42195   0.41819   0.41784   0.39855   0.39478
                          D1        D12       D7        D8        D11
   1                    0.39444  -0.02152   0.01998   0.01810  -0.01807
 RFO step:  Lambda=-3.39601783D-05 EMin=-2.02511100D-05
 Quartic linear search produced a step of  0.08299.
 Iteration  1 RMS(Cart)=  0.00566047 RMS(Int)=  0.00004185
 Iteration  2 RMS(Cart)=  0.00003811 RMS(Int)=  0.00001612
 Iteration  3 RMS(Cart)=  0.00000000 RMS(Int)=  0.00001612
 ITry= 1 IFail=0 DXMaxC= 2.55D-02 DCOld= 1.00D+10 DXMaxT= 5.05D-01 DXLimC= 3.00D+00 Rises=F
 Variable       Old X    -DE/DX   Delta X   Delta X   Delta X     New X
                                 (Linear)    (Quad)   (Total)
    R1        2.72975   0.00036   0.00047  -0.00029   0.00018   2.72993
    R2        2.08100   0.00029   0.00112  -0.00043   0.00069   2.08170
    R3        2.08097   0.00029   0.00112  -0.00023   0.00089   2.08186
    R4        2.07582   0.00024   0.00091   0.00021   0.00112   2.07694
    R5        2.62771   0.00220   0.00351   0.00157   0.00508   2.63279
    R6        2.63076   0.00252   0.00388   0.00206   0.00594   2.63669
    R7        2.27922   0.00141  -0.00155   0.00223   0.00068   2.27989
    R8        2.81630   0.00261   0.00447   0.00256   0.00702   2.82333
    R9        2.61794   0.00024   0.00067  -0.00023   0.00044   2.61838
   R10        2.63153   0.00074   0.00142  -0.00065   0.00076   2.63229
   R11        2.64773  -0.00001   0.00039  -0.00038   0.00001   2.64774
   R12        2.06420   0.00024   0.00112  -0.00038   0.00074   2.06493
   R13        2.64398   0.00000  -0.00184   0.00165  -0.00019   2.64379
   R14        2.06555   0.00014   0.00067  -0.00026   0.00041   2.06596
   R15        2.64774  -0.00001   0.00038  -0.00039  -0.00001   2.64774
   R16        2.06552   0.00014   0.00066  -0.00026   0.00041   2.06592
   R17        2.61802   0.00024   0.00066  -0.00022   0.00045   2.61847
   R18        2.06422   0.00023   0.00112  -0.00041   0.00071   2.06493
   R19        2.81694   0.00256   0.00444   0.00247   0.00691   2.82385
   R20        2.27890   0.00135  -0.00157   0.00205   0.00048   2.27938
    A1        1.92513   0.00049   0.00223   0.00084   0.00302   1.92814
    A2        1.92518   0.00049   0.00223   0.00201   0.00419   1.92937
    A3        1.88561  -0.00054  -0.00446   0.00012  -0.00432   1.88129
    A4        1.90002   0.00000   0.00105   0.00326   0.00420   1.90423
    A5        1.91387  -0.00022  -0.00049  -0.00298  -0.00346   1.91040
    A6        1.91404  -0.00022  -0.00048  -0.00336  -0.00383   1.91021
    A7        2.15459  -0.00030   0.00007  -0.00174  -0.00168   2.15291
    A8        2.17050  -0.00004  -0.00037  -0.00046  -0.00083   2.16967
    A9        1.95809   0.00034   0.00030   0.00220   0.00251   1.96060
   A10        2.18429  -0.00085  -0.00588   0.00221  -0.00368   2.18061
   A11        1.85107  -0.00053  -0.00053  -0.00201  -0.00254   1.84853
   A12        2.24782   0.00138   0.00642  -0.00020   0.00622   2.25404
   A13        2.27770  -0.00021   0.00010  -0.00086  -0.00076   2.27694
   A14        1.88235   0.00039   0.00040   0.00091   0.00131   1.88366
   A15        2.12313  -0.00018  -0.00050  -0.00005  -0.00055   2.12258
   A16        2.04638   0.00013   0.00015   0.00058   0.00072   2.04711
   A17        2.11725  -0.00004   0.00019  -0.00032  -0.00013   2.11713
   A18        2.11955  -0.00009  -0.00034  -0.00026  -0.00060   2.11895
   A19        2.11366   0.00005   0.00034  -0.00053  -0.00020   2.11346
   A20        2.08660  -0.00003  -0.00018   0.00008  -0.00010   2.08650
   A21        2.08292  -0.00001  -0.00016   0.00046   0.00030   2.08322
   A22        2.11351   0.00005   0.00032  -0.00051  -0.00019   2.11333
   A23        2.08297  -0.00001  -0.00016   0.00046   0.00030   2.08327
   A24        2.08670  -0.00003  -0.00016   0.00005  -0.00011   2.08659
   A25        2.04631   0.00013   0.00012   0.00056   0.00069   2.04700
   A26        2.11980  -0.00010  -0.00031  -0.00034  -0.00065   2.11915
   A27        2.11708  -0.00003   0.00019  -0.00023  -0.00004   2.11704
   A28        2.12337  -0.00017  -0.00043  -0.00005  -0.00048   2.12289
   A29        1.88459   0.00039   0.00051   0.00108   0.00159   1.88618
   A30        2.27522  -0.00022  -0.00008  -0.00104  -0.00111   2.27411
   A31        1.84867  -0.00059  -0.00068  -0.00219  -0.00287   1.84580
   A32        2.19245  -0.00072  -0.00560   0.00250  -0.00311   2.18934
   A33        2.24207   0.00131   0.00628  -0.00030   0.00598   2.24805
    D1       -1.04989  -0.00031  -0.00199   0.01145   0.00941  -1.04048
    D2        2.09148  -0.00032  -0.00201   0.01191   0.00985   2.10133
    D3        1.04965   0.00032   0.00197   0.01735   0.01936   1.06902
    D4       -2.09216   0.00032   0.00195   0.01780   0.01980  -2.07236
    D5       -3.14159   0.00000   0.00000   0.01451   0.01451  -3.12708
    D6       -0.00022  -0.00000  -0.00002   0.01497   0.01495   0.01472
    D7       -0.00035   0.00000  -0.00003   0.00062   0.00059   0.00024
    D8        3.14123  -0.00000  -0.00003   0.00043   0.00040  -3.14156
    D9        3.14144   0.00000  -0.00001   0.00021   0.00020  -3.14154
   D10       -0.00017   0.00000  -0.00001   0.00002   0.00000  -0.00016
   D11       -3.14126   0.00000   0.00003  -0.00034  -0.00032  -3.14157
   D12        0.00026   0.00001   0.00002  -0.00034  -0.00032  -0.00005
   D13        0.00013   0.00000   0.00001   0.00007   0.00008   0.00021
   D14       -3.14153   0.00000   0.00000   0.00007   0.00008  -3.14145
   D15       -3.14143   0.00000   0.00001   0.00014   0.00015  -3.14128
   D16        0.00013  -0.00000   0.00001  -0.00011  -0.00009   0.00004
   D17        0.00014  -0.00000   0.00001  -0.00006  -0.00005   0.00009
   D18       -3.14148  -0.00000   0.00001  -0.00031  -0.00030   3.14141
   D19        3.14156  -0.00000  -0.00000  -0.00023  -0.00023   3.14133
   D20       -0.00001  -0.00000  -0.00000  -0.00024  -0.00024  -0.00025
   D21        0.00000   0.00000   0.00000   0.00004   0.00004   0.00004
   D22       -3.14158   0.00000   0.00000   0.00004   0.00004  -3.14153
   D23        3.14153   0.00000  -0.00000   0.00020   0.00019  -3.14146
   D24       -0.00005   0.00000  -0.00000   0.00015   0.00014   0.00009
   D25       -0.00008  -0.00000  -0.00001  -0.00002  -0.00003  -0.00011
   D26        3.14151  -0.00000  -0.00001  -0.00007  -0.00008   3.14143
   D27        0.00007  -0.00000   0.00001  -0.00003  -0.00002   0.00005
   D28       -3.14148   0.00000   0.00001   0.00001   0.00002  -3.14146
   D29       -3.14154   0.00000   0.00000  -0.00003  -0.00002  -3.14156
   D30        0.00009   0.00000   0.00001   0.00002   0.00003   0.00012
   D31       -0.00006  -0.00000  -0.00001  -0.00000  -0.00001  -0.00007
   D32        3.14152  -0.00000  -0.00001   0.00000  -0.00000   3.14152
   D33        3.14149  -0.00000  -0.00001  -0.00005  -0.00006   3.14143
   D34       -0.00011  -0.00000  -0.00001  -0.00004  -0.00005  -0.00016
   D35       -0.00002   0.00000  -0.00000   0.00003   0.00003   0.00001
   D36       -3.14159   0.00000   0.00000   0.00005   0.00005  -3.14154
   D37        3.14158   0.00000  -0.00000   0.00002   0.00002  -3.14158
   D38        0.00001   0.00000   0.00000   0.00004   0.00004   0.00005
   D39        0.00009   0.00000   0.00001  -0.00001  -0.00001   0.00009
   D40       -3.14151  -0.00000   0.00001   0.00005   0.00006  -3.14145
   D41       -3.14152  -0.00000   0.00001  -0.00003  -0.00003  -3.14155
   D42        0.00006  -0.00000   0.00001   0.00003   0.00003   0.00010
   D43       -0.00004  -0.00000  -0.00000  -0.00014  -0.00014  -0.00018
   D44       -3.14156  -0.00000   0.00000  -0.00014  -0.00014   3.14149
   D45        3.14156  -0.00000  -0.00000  -0.00019  -0.00020   3.14136
   D46        0.00004  -0.00000   0.00000  -0.00020  -0.00019  -0.00015
         Item               Value     Threshold  Converged?
 Maximum Force            0.002605     0.000450     NO 
 RMS     Force            0.000611     0.000300     NO 
 Maximum Displacement     0.025542     0.001800     NO 
 RMS     Displacement     0.005659     0.001200     NO 
 Predicted change in Energy=-5.230951D-05
 Lowest energy point so far.  Saving SCF results.
 Step   2 in ReCalcFC=50 IGetFC= 0 compute gradient.
 GradGradGradGradGradGradGradGradGradGradGradGradGradGradGradGradGradGrad

 Leave Link  103 at Wed Feb 28 19:49:54 2024, MaxMem=  2147483648 cpu:               2.5 elap:               0.1
 (Enter /software/gaussian-16RevA.03-el7-x86_64/g16/l202.exe)
                          Input orientation:                          
 ---------------------------------------------------------------------
 Center     Atomic      Atomic             Coordinates (Angstroms)
 Number     Number       Type             X           Y           Z
 ---------------------------------------------------------------------
      1          6           0       -3.188010    0.255388    0.218099
      2          7           0       -1.750647    0.147407    0.121913
      3          6           0       -1.093544   -1.024268   -0.247459
      4          8           0       -1.638708   -2.064239   -0.524626
      5          6           0        0.365073   -0.702043   -0.219826
      6          6           0        1.466458   -1.494804   -0.499716
      7          6           0        2.730682   -0.901735   -0.385021
      8          6           0        2.868715    0.437008   -0.002910
      9          6           0        1.747156    1.228591    0.277523
     10          6           0        0.502545    0.630903    0.160516
     11          6           0       -0.864043    1.192150    0.385062
     12          8           0       -1.177235    2.306989    0.722628
     13          1           0       -3.657063    0.031997   -0.753281
     14          1           0       -3.578292   -0.442490    0.975945
     15          1           0       -3.428340    1.286759    0.512156
     16          1           0        1.352689   -2.539926   -0.797716
     17          1           0        3.625075   -1.493500   -0.597357
     18          1           0        3.868845    0.871073    0.077714
     19          1           0        1.848641    2.274738    0.576359
 ---------------------------------------------------------------------
                    Distance matrix (angstroms):
                    1          2          3          4          5
     1  C    0.000000
     2  N    1.444619   0.000000
     3  C    2.498209   1.393213   0.000000
     4  O    2.886632   2.306929   1.206467   0.000000
     5  C    3.705786   2.305346   1.494040   2.442052   0.000000
     6  C    5.024191   3.665111   2.615081   3.157045   1.385589
     7  C    6.060825   4.630334   3.828661   4.523547   2.379763
     8  C    6.063477   4.630114   4.230205   5.181244   2.759115
     9  C    5.030558   3.664396   3.663408   4.790641   2.425872
    10  C    3.710056   2.304806   2.335280   3.509725   1.392947
    11  C    2.511219   1.395278   2.316304   3.468675   2.337645
    12  O    2.916647   2.313753   3.470641   4.569051   3.510158
    13  H    1.101587   2.100882   2.818365   2.918946   4.123223
    14  H    1.101674   2.101817   2.830045   2.940029   4.128845
    15  H    1.099070   2.065204   3.371814   3.937878   4.345240
    16  H    5.428039   4.206919   2.929856   3.041268   2.164984
    17  H    7.081080   5.666419   4.754784   5.295134   3.375877
    18  H    7.085052   5.666068   5.321969   6.269928   3.852225
    19  H    5.438196   4.205583   4.496506   5.674547   3.419957
                    6          7          8          9         10
     6  C    0.000000
     7  C    1.401124   0.000000
     8  C    2.438245   1.399033   0.000000
     9  C    2.846009   2.438150   1.401121   0.000000
    10  C    2.425626   2.758838   2.379720   1.385633   0.000000
    11  C    3.665213   4.230772   3.828086   2.613666   1.494316
    12  O    4.789245   5.176351   4.515855   3.148511   2.438625
    13  H    5.352185   6.466124   6.581252   5.630273   4.300703
    14  H    5.360452   6.470416   6.579937   5.625007   4.297711
    15  H    5.720142   6.597574   6.374972   5.181138   4.000706
    16  H    1.092716   2.180104   3.433976   3.938713   3.419811
    17  H    2.160824   1.093257   2.156921   3.420785   3.851968
    18  H    3.420856   2.156938   1.093239   2.160857   3.375872
    19  H    3.938711   3.433981   2.180219   1.092715   2.164970
                   11         12         13         14         15
    11  C    0.000000
    12  O    1.206195   0.000000
    13  H    3.231523   3.674703   0.000000
    14  H    3.223094   3.659081   1.794872   0.000000
    15  H    2.569187   2.480452   1.796683   1.796632   0.000000
    16  H    4.499028   5.674905   5.631552   5.644439   6.262389
    17  H    5.322597   6.264843   7.441840   7.447711   7.662344
    18  H    4.753712   5.285895   7.617997   7.615255   7.321915
    19  H    2.926986   3.029581   6.091847   6.082318   5.369055
                   16         17         18         19
    16  H    0.000000
    17  H    2.509759   0.000000
    18  H    4.328086   2.471102   0.000000
    19  H    5.031405   4.328157   2.510009   0.000000
 Symmetry turned off by external request.
 Stoichiometry    C9H7NO2
 Framework group  C1[X(C9H7NO2)]
 Deg. of freedom    51
 Full point group                 C1      NOp   1
 Rotational constants (GHZ):           1.7413909           0.8646707           0.5799324
 Leave Link  202 at Wed Feb 28 19:49:54 2024, MaxMem=  2147483648 cpu:               0.2 elap:               0.0
 (Enter /software/gaussian-16RevA.03-el7-x86_64/g16/l301.exe)
 Standard basis: def2SVPP (5D, 7F)
 Ernie: Thresh=  0.10000D-02 Tol=  0.10000D-05 Strict=F.
   182 basis functions,   328 primitive gaussians,   194 cartesian basis functions
    42 alpha electrons       42 beta electrons
       nuclear repulsion energy       656.4690219591 Hartrees.
 IExCor= 4639 DFT=T Ex+Corr=wB97XD ExCW=0 ScaHFX=  1.000000
 ScaDFX=  1.000000  1.000000  1.000000  1.000000 ScalE2=  1.000000  1.000000
 IRadAn=      5 IRanWt=     -1 IRanGd=            0 ICorTp=0 IEmpDi=121
 HFx  wShort=  0.000000 wLong=  0.200000 cFull=  0.222036 cShort=  0.000000 cLong=  0.777964
 DFx  wShort=  0.000000 wLong=  0.200000 cFull=  0.000000 cShort=  0.000000 cLong=  1.000000
 NAtoms=   19 NActive=   19 NUniq=   19 SFac= 1.00D+00 NAtFMM=   60 NAOKFM=F Big=F
 Integral buffers will be    131072 words long.
 Raffenetti 2 integral format.
 Two-electron integral symmetry is turned off.
 R6Disp:  Grimme-D2 Dispersion energy=       -0.0100156057 Hartrees.
 Nuclear repulsion after empirical dispersion term =      656.4590063534 Hartrees.
 Force inversion solution in PCM.
 ------------------------------------------------------------------------------
 Polarizable Continuum Model (PCM)
 =================================
 Model                : PCM.
 Atomic radii         : UFF (Universal Force Field).
 Polarization charges : Total charges.
 Charge compensation  : None.
 Solution method      : Matrix inversion.
 Cavity type          : Scaled VdW (van der Waals Surface) (Alpha=1.100).
 Cavity algorithm     : GePol (No added spheres)
                        Default sphere list used, NSphG=   19.
                        Lebedev-Laikov grids with approx.  5.0 points / Ang**2.
                        Smoothing algorithm: York/Karplus (Gamma=1.0000).
                        Polarization charges: spherical gaussians, with
                                              point-specific exponents (IZeta= 3).
                        Self-potential: point-specific (ISelfS= 7).
                        Self-field    : sphere-specific E.n sum rule (ISelfD= 2).
 1st derivatives      : Analytical E(r).r(x)/FMM algorithm (CHGder, D1EAlg=3).
                        Cavity 1st derivative terms included.
 Solvent              : n,n-DiMethylFormamide, Eps=  37.219000 Eps(inf)=   2.046330
 ------------------------------------------------------------------------------
 Spheres list:
 ISph  on   Nord     Re0    Alpha      Xe            Ye            Ze
    1   C      1    1.9255  1.100     -3.188010      0.255388      0.218099
    2   N      2    1.8300  1.100     -1.750647      0.147407      0.121913
    3   C      3    1.9255  1.100     -1.093544     -1.024268     -0.247459
    4   O      4    1.7500  1.100     -1.638708     -2.064239     -0.524626
    5   C      5    1.9255  1.100      0.365073     -0.702043     -0.219826
    6   C      6    1.9255  1.100      1.466458     -1.494804     -0.499716
    7   C      7    1.9255  1.100      2.730682     -0.901735     -0.385021
    8   C      8    1.9255  1.100      2.868715      0.437008     -0.002910
    9   C      9    1.9255  1.100      1.747156      1.228591      0.277523
   10   C     10    1.9255  1.100      0.502545      0.630903      0.160516
   11   C     11    1.9255  1.100     -0.864043      1.192150      0.385062
   12   O     12    1.7500  1.100     -1.177235      2.306989      0.722628
   13   H     13    1.4430  1.100     -3.657063      0.031997     -0.753281
   14   H     14    1.4430  1.100     -3.578292     -0.442490      0.975945
   15   H     15    1.4430  1.100     -3.428340      1.286759      0.512156
   16   H     16    1.4430  1.100      1.352689     -2.539926     -0.797716
   17   H     17    1.4430  1.100      3.625075     -1.493500     -0.597357
   18   H     18    1.4430  1.100      3.868845      0.871073      0.077714
   19   H     19    1.4430  1.100      1.848641      2.274738      0.576359
 ------------------------------------------------------------------------------
 GePol: Number of generator spheres                  =      19
 GePol: Total number of spheres                      =      19
 GePol: Number of exposed spheres                    =      19 (100.00%)
 GePol: Number of points                             =    1659
 GePol: Average weight of points                     =       0.13
 GePol: Minimum weight of points                     =   0.31D-09
 GePol: Maximum weight of points                     =    0.20577
 GePol: Number of points with low weight             =     100
 GePol: Fraction of low-weight points (<1% of avg)   =       6.03%
 GePol: Cavity surface area                          =    216.053 Ang**2
 GePol: Cavity volume                                =    219.181 Ang**3
 Leave Link  301 at Wed Feb 28 19:49:54 2024, MaxMem=  2147483648 cpu:               2.3 elap:               0.1
 (Enter /software/gaussian-16RevA.03-el7-x86_64/g16/l302.exe)
 NPDir=0 NMtPBC=     1 NCelOv=     1 NCel=       1 NClECP=     1 NCelD=      1
         NCelK=      1 NCelE2=     1 NClLst=     1 CellRange=     0.0.
 One-electron integrals computed using PRISM.
   1 Symmetry operations used in ECPInt.
 ECPInt:  NShTT=    3741 NPrTT=   15055 LenC2=    3665 LenP2D=   11025.
 LDataN:  DoStor=T MaxTD1= 4 Len=   56
 NBasis=   182 RedAO= T EigKep=  2.79D-04  NBF=   182
 NBsUse=   182 1.00D-06 EigRej= -1.00D+00 NBFU=   182
 Precomputing XC quadrature grid using
 IXCGrd= 4 IRadAn=           5 IRanWt=          -1 IRanGd=           0 AccXCQ= 0.00D+00.
 Generated NRdTot=       0 NPtTot=           0 NUsed=           0 NTot=          32
 NSgBfM=   193   193   193   193   193 MxSgAt=    19 MxSgA2=    19.
 Leave Link  302 at Wed Feb 28 19:49:54 2024, MaxMem=  2147483648 cpu:               6.0 elap:               0.2
 (Enter /software/gaussian-16RevA.03-el7-x86_64/g16/l303.exe)
 DipDrv:  MaxL=1.
 Leave Link  303 at Wed Feb 28 19:49:54 2024, MaxMem=  2147483648 cpu:               1.4 elap:               0.1
 (Enter /software/gaussian-16RevA.03-el7-x86_64/g16/l401.exe)
 Initial guess from the checkpoint file:  "NMPHTH-cavity-in-DMF-wB97XD.chk"
 B after Tr=    -0.001068   -0.000605   -0.000125
         Rot=    1.000000   -0.000485    0.000065   -0.000052 Ang=  -0.06 deg.
 Guess basis will be translated and rotated to current coordinates.
 JPrj=2 DoOrth=T DoCkMO=T.
 Generating alternative initial guess.
 ExpMin= 1.22D-01 ExpMax= 2.27D+03 ExpMxC= 3.41D+02 IAcc=2 IRadAn=         4 AccDes= 0.00D+00
 Harris functional with IExCor= 4639 and IRadAn=       4 diagonalized for initial guess.
 HarFok:  IExCor= 4639 AccDes= 0.00D+00 IRadAn=         4 IDoV= 1 UseB2=F ITyADJ=14
 ICtDFT=  3500011 ScaDFX=  1.000000  1.000000  1.000000  1.000000
 FoFCou: FMM=F IPFlag=           0 FMFlag=      100000 FMFlg1=           0
         NFxFlg=           0 DoJE=T BraDBF=F KetDBF=T FulRan=T
         wScrn=  0.000000 ICntrl=       500 IOpCl=  0 I1Cent=   200000004 NGrid=           0
         NMat0=    1 NMatS0=      1 NMatT0=    0 NMatD0=    1 NMtDS0=    0 NMtDT0=    0
 Symmetry not used in FoFCou.
 Harris En= -528.820464911319    
 Leave Link  401 at Wed Feb 28 19:49:55 2024, MaxMem=  2147483648 cpu:              10.5 elap:               0.4
 (Enter /software/gaussian-16RevA.03-el7-x86_64/g16/l502.exe)
 Two-electron integral symmetry not used.
 Closed shell SCF:
 Using DIIS extrapolation, IDIIS=  1040.
 NGot=  2147483648 LenX=  2147401213 LenY=  2147363136
 Requested convergence on RMS density matrix=1.00D-08 within  32 cycles.
 Requested convergence on MAX density matrix=1.00D-06.
 Requested convergence on             energy=1.00D-06.
 No special actions if energy rises.
 Fock matrices will be formed incrementally for  20 cycles.

 Cycle   1  Pass 1  IDiag  1:
 FoFJK:  IHMeth= 1 ICntrl=       0 DoSepK=T KAlg= 0 I1Cent=           0 FoldK=F
 IRaf=         1 NMat=       1 IRICut=       1 DoRegI=T DoRafI=F ISym2E= 0 IDoP0=0 IntGTp=1.
 FoFCou: FMM=F IPFlag=           0 FMFlag=      100000 FMFlg1=           0
         NFxFlg=           0 DoJE=T BraDBF=F KetDBF=F FulRan=T
         wScrn=  0.000000 ICntrl=       500 IOpCl=  0 I1Cent=           0 NGrid=           0
         NMat0=    1 NMatS0=      1 NMatT0=    0 NMatD0=    1 NMtDS0=    0 NMtDT0=    0
 Symmetry not used in FoFCou.
 Inv3:  Mode=1 IEnd=     8256843.
 Iteration    1 A*A^-1 deviation from unit magnitude is 3.00D-15 for   1339.
 Iteration    1 A*A^-1 deviation from orthogonality  is 1.90D-15 for    589    480.
 Iteration    1 A^-1*A deviation from unit magnitude is 3.22D-15 for   1339.
 Iteration    1 A^-1*A deviation from orthogonality  is 1.33D-15 for   1567    873.
 E= -551.822194581838    
 DIIS: error= 5.98D-04 at cycle   1 NSaved=   1.
 NSaved= 1 IEnMin= 1 EnMin= -551.822194581838     IErMin= 1 ErrMin= 5.98D-04
 ErrMax= 5.98D-04  0.00D+00 EMaxC= 1.00D-01 BMatC= 6.12D-05 BMatP= 6.12D-05
 IDIUse=3 WtCom= 9.94D-01 WtEn= 5.98D-03
 Coeff-Com:  0.100D+01
 Coeff-En:   0.100D+01
 Coeff:      0.100D+01
 Gap=     0.823 Goal=   None    Shift=    0.000
 RMSDP=8.57D-05 MaxDP=2.37D-03              OVMax= 2.15D-03

 Cycle   2  Pass 1  IDiag  1:
 RMSU=  8.50D-05    CP:  1.00D+00
 E= -551.822271404351     Delta-E=       -0.000076822513 Rises=F Damp=F
 DIIS: error= 1.84D-04 at cycle   2 NSaved=   2.
 NSaved= 2 IEnMin= 2 EnMin= -551.822271404351     IErMin= 2 ErrMin= 1.84D-04
 ErrMax= 1.84D-04  0.00D+00 EMaxC= 1.00D-01 BMatC= 7.39D-06 BMatP= 6.12D-05
 IDIUse=3 WtCom= 9.98D-01 WtEn= 1.84D-03
 Coeff-Com:  0.581D-01 0.942D+00
 Coeff-En:   0.000D+00 0.100D+01
 Coeff:      0.580D-01 0.942D+00
 Gap=     0.327 Goal=   None    Shift=    0.000
 RMSDP=2.71D-05 MaxDP=7.28D-04 DE=-7.68D-05 OVMax= 1.19D-03

 Cycle   3  Pass 1  IDiag  1:
 RMSU=  2.69D-05    CP:  1.00D+00  1.02D+00
 E= -551.822271819793     Delta-E=       -0.000000415441 Rises=F Damp=F
 DIIS: error= 2.44D-04 at cycle   3 NSaved=   3.
 NSaved= 3 IEnMin= 3 EnMin= -551.822271819793     IErMin= 2 ErrMin= 1.84D-04
 ErrMax= 2.44D-04  0.00D+00 EMaxC= 1.00D-01 BMatC= 1.06D-05 BMatP= 7.39D-06
 IDIUse=3 WtCom= 3.90D-01 WtEn= 6.10D-01
 Coeff-Com: -0.916D-01 0.589D+00 0.502D+00
 Coeff-En:   0.000D+00 0.485D+00 0.515D+00
 Coeff:     -0.357D-01 0.526D+00 0.510D+00
 Gap=     0.327 Goal=   None    Shift=    0.000
 RMSDP=1.84D-05 MaxDP=5.14D-04 DE=-4.15D-07 OVMax= 8.63D-04

 Cycle   4  Pass 1  IDiag  1:
 RMSU=  9.19D-06    CP:  1.00D+00  1.11D+00  4.89D-01
 E= -551.822279817545     Delta-E=       -0.000007997752 Rises=F Damp=F
 DIIS: error= 4.83D-05 at cycle   4 NSaved=   4.
 NSaved= 4 IEnMin= 4 EnMin= -551.822279817545     IErMin= 4 ErrMin= 4.83D-05
 ErrMax= 4.83D-05  0.00D+00 EMaxC= 1.00D-01 BMatC= 3.41D-07 BMatP= 7.39D-06
 IDIUse=1 WtCom= 1.00D+00 WtEn= 0.00D+00
 Coeff-Com: -0.149D-01-0.361D-01 0.135D+00 0.916D+00
 Coeff:     -0.149D-01-0.361D-01 0.135D+00 0.916D+00
 Gap=     0.327 Goal=   None    Shift=    0.000
 RMSDP=3.66D-06 MaxDP=8.48D-05 DE=-8.00D-06 OVMax= 1.55D-04

 Cycle   5  Pass 1  IDiag  1:
 RMSU=  2.21D-06    CP:  1.00D+00  1.12D+00  5.92D-01  1.09D+00
 E= -551.822280126130     Delta-E=       -0.000000308586 Rises=F Damp=F
 DIIS: error= 6.39D-06 at cycle   5 NSaved=   5.
 NSaved= 5 IEnMin= 5 EnMin= -551.822280126130     IErMin= 5 ErrMin= 6.39D-06
 ErrMax= 6.39D-06  0.00D+00 EMaxC= 1.00D-01 BMatC= 9.64D-09 BMatP= 3.41D-07
 IDIUse=1 WtCom= 1.00D+00 WtEn= 0.00D+00
 Coeff-Com:  0.203D-02-0.579D-01 0.899D-02 0.300D+00 0.747D+00
 Coeff:      0.203D-02-0.579D-01 0.899D-02 0.300D+00 0.747D+00
 Gap=     0.327 Goal=   None    Shift=    0.000
 RMSDP=9.93D-07 MaxDP=1.81D-05 DE=-3.09D-07 OVMax= 3.47D-05

 Cycle   6  Pass 1  IDiag  1:
 RMSU=  5.69D-07    CP:  1.00D+00  1.12D+00  6.08D-01  1.17D+00  9.18D-01
 E= -551.822280137131     Delta-E=       -0.000000011001 Rises=F Damp=F
 DIIS: error= 1.61D-06 at cycle   6 NSaved=   6.
 NSaved= 6 IEnMin= 6 EnMin= -551.822280137131     IErMin= 6 ErrMin= 1.61D-06
 ErrMax= 1.61D-06  0.00D+00 EMaxC= 1.00D-01 BMatC= 7.89D-10 BMatP= 9.64D-09
 IDIUse=1 WtCom= 1.00D+00 WtEn= 0.00D+00
 Coeff-Com:  0.169D-02-0.180D-01-0.610D-02 0.430D-01 0.257D+00 0.722D+00
 Coeff:      0.169D-02-0.180D-01-0.610D-02 0.430D-01 0.257D+00 0.722D+00
 Gap=     0.327 Goal=   None    Shift=    0.000
 RMSDP=2.62D-07 MaxDP=5.35D-06 DE=-1.10D-08 OVMax= 9.93D-06

 Cycle   7  Pass 1  IDiag  1:
 RMSU=  1.84D-07    CP:  1.00D+00  1.12D+00  6.10D-01  1.18D+00  9.76D-01
                    CP:  9.73D-01
 E= -551.822280138075     Delta-E=       -0.000000000944 Rises=F Damp=F
 DIIS: error= 5.65D-07 at cycle   7 NSaved=   7.
 NSaved= 7 IEnMin= 7 EnMin= -551.822280138075     IErMin= 7 ErrMin= 5.65D-07
 ErrMax= 5.65D-07  0.00D+00 EMaxC= 1.00D-01 BMatC= 7.92D-11 BMatP= 7.89D-10
 IDIUse=1 WtCom= 1.00D+00 WtEn= 0.00D+00
 Coeff-Com:  0.286D-03 0.999D-03-0.296D-02-0.200D-01-0.106D-01 0.223D+00
 Coeff-Com:  0.810D+00
 Coeff:      0.286D-03 0.999D-03-0.296D-02-0.200D-01-0.106D-01 0.223D+00
 Coeff:      0.810D+00
 Gap=     0.327 Goal=   None    Shift=    0.000
 RMSDP=9.79D-08 MaxDP=2.04D-06 DE=-9.44D-10 OVMax= 3.68D-06

 Cycle   8  Pass 1  IDiag  1:
 RMSU=  5.82D-08    CP:  1.00D+00  1.12D+00  6.11D-01  1.18D+00  9.93D-01
                    CP:  1.07D+00  1.00D+00
 E= -551.822280138177     Delta-E=       -0.000000000102 Rises=F Damp=F
 DIIS: error= 2.22D-07 at cycle   8 NSaved=   8.
 NSaved= 8 IEnMin= 8 EnMin= -551.822280138177     IErMin= 8 ErrMin= 2.22D-07
 ErrMax= 2.22D-07  0.00D+00 EMaxC= 1.00D-01 BMatC= 1.35D-11 BMatP= 7.92D-11
 IDIUse=1 WtCom= 1.00D+00 WtEn= 0.00D+00
 Coeff-Com: -0.203D-04 0.204D-02-0.750D-03-0.125D-01-0.291D-01 0.312D-01
 Coeff-Com:  0.354D+00 0.655D+00
 Coeff:     -0.203D-04 0.204D-02-0.750D-03-0.125D-01-0.291D-01 0.312D-01
 Coeff:      0.354D+00 0.655D+00
 Gap=     0.327 Goal=   None    Shift=    0.000
 RMSDP=3.10D-08 MaxDP=6.20D-07 DE=-1.02D-10 OVMax= 1.20D-06

 Cycle   9  Pass 1  IDiag  1:
 RMSU=  2.13D-08    CP:  1.00D+00  1.12D+00  6.11D-01  1.18D+00  9.95D-01
                    CP:  1.09D+00  1.08D+00  9.15D-01
 E= -551.822280138190     Delta-E=       -0.000000000014 Rises=F Damp=F
 DIIS: error= 7.72D-08 at cycle   9 NSaved=   9.
 NSaved= 9 IEnMin= 9 EnMin= -551.822280138190     IErMin= 9 ErrMin= 7.72D-08
 ErrMax= 7.72D-08  0.00D+00 EMaxC= 1.00D-01 BMatC= 1.33D-12 BMatP= 1.35D-11
 IDIUse=1 WtCom= 1.00D+00 WtEn= 0.00D+00
 Coeff-Com: -0.445D-04 0.616D-03 0.121D-03-0.192D-02-0.932D-02-0.175D-01
 Coeff-Com:  0.237D-01 0.229D+00 0.775D+00
 Coeff:     -0.445D-04 0.616D-03 0.121D-03-0.192D-02-0.932D-02-0.175D-01
 Coeff:      0.237D-01 0.229D+00 0.775D+00
 Gap=     0.327 Goal=   None    Shift=    0.000
 RMSDP=1.24D-08 MaxDP=2.14D-07 DE=-1.35D-11 OVMax= 1.01D-06

 Cycle  10  Pass 1  IDiag  1:
 RMSU=  8.99D-09    CP:  1.00D+00  1.12D+00  6.12D-01  1.18D+00  9.96D-01
                    CP:  1.10D+00  1.10D+00  1.01D+00  1.07D+00
 E= -551.822280138198     Delta-E=       -0.000000000008 Rises=F Damp=F
 DIIS: error= 4.47D-08 at cycle  10 NSaved=  10.
 NSaved=10 IEnMin=10 EnMin= -551.822280138198     IErMin=10 ErrMin= 4.47D-08
 ErrMax= 4.47D-08  0.00D+00 EMaxC= 1.00D-01 BMatC= 2.42D-13 BMatP= 1.33D-12
 IDIUse=1 WtCom= 1.00D+00 WtEn= 0.00D+00
 Coeff-Com: -0.979D-05-0.159D-03 0.161D-03 0.149D-02 0.216D-02-0.104D-01
 Coeff-Com: -0.499D-01-0.451D-01 0.219D+00 0.882D+00
 Coeff:     -0.979D-05-0.159D-03 0.161D-03 0.149D-02 0.216D-02-0.104D-01
 Coeff:     -0.499D-01-0.451D-01 0.219D+00 0.882D+00
 Gap=     0.327 Goal=   None    Shift=    0.000
 RMSDP=7.10D-09 MaxDP=1.35D-07 DE=-7.50D-12 OVMax= 5.85D-07

 Error on total polarization charges =  0.00723
 SCF Done:  E(RwB97XD) =  -551.822280138     A.U. after   10 cycles
            NFock= 10  Conv=0.71D-08     -V/T= 2.0095
 KE= 5.466517773373D+02 PE=-2.597271929677D+03 EE= 8.423388658480D+02
 Leave Link  502 at Wed Feb 28 19:50:04 2024, MaxMem=  2147483648 cpu:             262.6 elap:               9.7
 (Enter /software/gaussian-16RevA.03-el7-x86_64/g16/l508.exe)
 QCSCF skips out because SCF is already converged.
 Leave Link  508 at Wed Feb 28 19:50:04 2024, MaxMem=  2147483648 cpu:               0.1 elap:               0.0
 (Enter /software/gaussian-16RevA.03-el7-x86_64/g16/l801.exe)
 DoSCS=F DFT=T ScalE2(SS,OS)=  1.000000  1.000000
 Range of M.O.s used for correlation:     1   182
 NBasis=   182 NAE=    42 NBE=    42 NFC=     0 NFV=     0
 NROrb=    182 NOA=    42 NOB=    42 NVA=   140 NVB=   140

 **** Warning!!: The largest alpha MO coefficient is  0.16791114D+02

 Leave Link  801 at Wed Feb 28 19:50:04 2024, MaxMem=  2147483648 cpu:               0.6 elap:               0.0
 (Enter /software/gaussian-16RevA.03-el7-x86_64/g16/l1101.exe)
 Leave Link 1101 at Wed Feb 28 19:50:05 2024, MaxMem=  2147483648 cpu:               1.3 elap:               0.1
 (Enter /software/gaussian-16RevA.03-el7-x86_64/g16/l1102.exe)
 Symmetrizing basis deriv contribution to polar:
 IMax=3 JMax=2 DiffMx= 0.00D+00
 Leave Link 1102 at Wed Feb 28 19:50:05 2024, MaxMem=  2147483648 cpu:               0.8 elap:               0.1
 (Enter /software/gaussian-16RevA.03-el7-x86_64/g16/l1110.exe)
 Leave Link 1110 at Wed Feb 28 19:50:05 2024, MaxMem=  2147483648 cpu:               0.6 elap:               0.0
 (Enter /software/gaussian-16RevA.03-el7-x86_64/g16/l1002.exe)
 Minotr:  Closed shell wavefunction.
 Leave Link 1002 at Wed Feb 28 19:50:05 2024, MaxMem=  2147483648 cpu:               0.8 elap:               0.1
 (Enter /software/gaussian-16RevA.03-el7-x86_64/g16/l701.exe)
 ... and contract with generalized density number  0.
 Compute integral first derivatives.
 R6Disp: Adding Grimme-D2 dispersion energy 1st derivatives to the gradient.
   1 Symmetry operations used in ECPInt.
 ECPInt:  NShTT=    3741 NPrTT=   15055 LenC2=    3665 LenP2D=   11025.
 LDataN:  DoStor=T MaxTD1= 5 Len=  102
 D1PCM: PCM CHGder 1st derivatives, ID1Alg=3 FixD1E=F DoIter=F DoCFld=F I1PDM=0.
 GePol: Maximum number of non-zero 1st derivatives   =     213
 Leave Link  701 at Wed Feb 28 19:50:05 2024, MaxMem=  2147483648 cpu:              19.5 elap:               0.7
 (Enter /software/gaussian-16RevA.03-el7-x86_64/g16/l702.exe)
 L702 exits ... SP integral derivatives will be done elsewhere.
 Leave Link  702 at Wed Feb 28 19:50:05 2024, MaxMem=  2147483648 cpu:               0.7 elap:               0.0
 (Enter /software/gaussian-16RevA.03-el7-x86_64/g16/l703.exe)
 Integral derivatives from FoFJK, PRISM(SPDF).
 Compute integral first derivatives, UseDBF=F ICtDFT=           0.
 Calling FoFJK, ICntrl=      2127 FMM=F ISym2X=0 I1Cent= 0 IOpClX= 0 NMat=1 NMatS=1 NMatT=0.
 FoFJK:  IHMeth= 1 ICntrl=    2127 DoSepK=T KAlg= 0 I1Cent=           0 FoldK=F
 IRaf=         1 NMat=       1 IRICut=       1 DoRegI=T DoRafI=F ISym2E= 0 IDoP0=0 IntGTp=1.
 FoFCou: FMM=F IPFlag=           0 FMFlag=      100000 FMFlg1=         800
         NFxFlg=           0 DoJE=F BraDBF=F KetDBF=F FulRan=T
         wScrn=  0.000000 ICntrl=      2527 IOpCl=  0 I1Cent=           0 NGrid=           0
         NMat0=    1 NMatS0=      1 NMatT0=    0 NMatD0=    1 NMtDS0=    0 NMtDT0=    0
 Symmetry not used in FoFCou.
 Leave Link  703 at Wed Feb 28 19:50:07 2024, MaxMem=  2147483648 cpu:              51.9 elap:               1.9
 (Enter /software/gaussian-16RevA.03-el7-x86_64/g16/l716.exe)
 Dipole        = 1.15869251D+00-8.41215812D-02-7.73183260D-02
 Polarizability= 0.00000000D+00 0.00000000D+00 0.00000000D+00
                 0.00000000D+00 0.00000000D+00 0.00000000D+00
 -------------------------------------------------------------------
 Center     Atomic                   Forces (Hartrees/Bohr)
 Number     Number              X              Y              Z
 -------------------------------------------------------------------
      1        6           0.000042126    0.000046704   -0.000014958
      2        7          -0.000122036   -0.000047996   -0.000012046
      3        6          -0.000154772   -0.000181199   -0.000037913
      4        8          -0.000016177   -0.000028137   -0.000000948
      5        6           0.000212650    0.000060792    0.000003490
      6        6           0.000003451   -0.000005803   -0.000003071
      7        6          -0.000001344   -0.000031367   -0.000008309
      8        6           0.000004101    0.000033417    0.000008903
      9        6           0.000002336    0.000008534    0.000001416
     10        6           0.000190033   -0.000084101   -0.000034170
     11        6          -0.000063906    0.000227786    0.000068556
     12        8          -0.000009881    0.000020894    0.000002621
     13        1           0.000002744   -0.000007072    0.000028807
     14        1          -0.000012011   -0.000004482   -0.000019494
     15        1          -0.000047263   -0.000016547    0.000013228
     16        1           0.000000137    0.000024705    0.000007715
     17        1          -0.000010565    0.000008276    0.000003614
     18        1          -0.000012930   -0.000002829   -0.000000921
     19        1          -0.000006692   -0.000021576   -0.000006521
 -------------------------------------------------------------------
 Cartesian Forces:  Max     0.000227786 RMS     0.000065347
 Leave Link  716 at Wed Feb 28 19:50:07 2024, MaxMem=  2147483648 cpu:               0.8 elap:               0.1
 (Enter /software/gaussian-16RevA.03-el7-x86_64/g16/l103.exe)

 GradGradGradGradGradGradGradGradGradGradGradGradGradGradGradGradGradGrad
 Berny optimization.
 Using GEDIIS/GDIIS optimizer.
 FormGI is forming the generalized inverse of G from B-inverse, IUseBI=4.
 Internal  Forces:  Max     0.000221839 RMS     0.000040057
 Step   3 in ReCalcFC=50 IGetFC= 0 update Hessian.
 Search for a local minimum.
 Step number   3 out of a maximum of  114
 All quantities printed in internal units (Hartrees-Bohrs-Radians)
 RMS Force = .40057D-04 SwitMx=.10000D-02 MixMth= 2
 Mixed Optimization -- En-DIIS/RFO-DIIS
 Swapping is turned off.
 Update second derivatives using D2CorX and points    1    2    3
 DE= -5.57D-05 DEPred=-5.23D-05 R= 1.07D+00
 TightC=F SS=  1.41D+00  RLast= 4.21D-02 DXNew= 8.4853D-01 1.2628D-01
 Trust test= 1.07D+00 RLast= 4.21D-02 DXMaxT set to 5.05D-01
 ITU=  1  1  0
     Eigenvalues ---   -0.00002   0.00617   0.01006   0.01480   0.01579
     Eigenvalues ---    0.01799   0.01860   0.02151   0.02430   0.02713
     Eigenvalues ---    0.03030   0.03199   0.04333   0.04942   0.06041
     Eigenvalues ---    0.06166   0.10727   0.10761   0.12095   0.12460
     Eigenvalues ---    0.13457   0.14825   0.16743   0.18341   0.18688
     Eigenvalues ---    0.19191   0.19627   0.20572   0.23398   0.24420
     Eigenvalues ---    0.25449   0.28383   0.30250   0.35531   0.35814
     Eigenvalues ---    0.35880   0.36705   0.37292   0.37494   0.37782
     Eigenvalues ---    0.38118   0.38446   0.39134   0.41209   0.43115
     Eigenvalues ---    0.43744   0.49022   0.51078   0.53870   0.85869
     Eigenvalues ---    0.87948
 Eigenvalue     1 is  -2.05D-05 should be greater than     0.000000 Eigenvector:
                          D6        D2        D4        D5        D1
   1                    0.42194   0.41871   0.41738   0.39850   0.39526
                          D3        D12       D7        D8        D11
   1                    0.39393  -0.02160   0.02000   0.01815  -0.01814
 Use linear search instead of GDIIS.
 RFO step:  Lambda=-1.02631545D-04 EMin=-1.00000000D-04
 I=     1 Eig=   -1.00D-04 Dot1= -9.85D-06
 I=     1 Stepn= -6.00D-01 RXN=   6.00D-01 EDone=F
 Mixed    1 eigenvectors in step.  Raw Step.Grad=  9.85D-06.
 RFO eigenvector is Hessian eigenvector with negative curvature.
 Taking step of  6.00D-01 in eigenvector direction(s).  Step.Grad= -9.36D-07.
 Quartic linear search produced a step of  0.03891.
 Iteration  1 RMS(Cart)=  0.06509839 RMS(Int)=  0.01273817
 Iteration  2 RMS(Cart)=  0.01638011 RMS(Int)=  0.00034871
 Iteration  3 RMS(Cart)=  0.00037438 RMS(Int)=  0.00000619
 Iteration  4 RMS(Cart)=  0.00000018 RMS(Int)=  0.00000619
 ITry= 1 IFail=0 DXMaxC= 4.32D-01 DCOld= 1.00D+10 DXMaxT= 5.05D-01 DXLimC= 3.00D+00 Rises=F
 Variable       Old X    -DE/DX   Delta X   Delta X   Delta X     New X
                                 (Linear)    (Quad)   (Total)
    R1        2.72993   0.00002   0.00001   0.00002   0.00003   2.72996
    R2        2.08170  -0.00003   0.00003   0.00165   0.00168   2.08338
    R3        2.08186  -0.00001   0.00003  -0.00152  -0.00148   2.08038
    R4        2.07694  -0.00000   0.00004   0.00015   0.00020   2.07714
    R5        2.63279   0.00013   0.00020   0.00049   0.00069   2.63348
    R6        2.63669   0.00018   0.00023   0.00064   0.00087   2.63757
    R7        2.27989   0.00003   0.00003   0.00005   0.00008   2.27997
    R8        2.82333   0.00022   0.00027   0.00064   0.00091   2.82423
    R9        2.61838  -0.00001   0.00002   0.00003   0.00004   2.61843
   R10        2.63229   0.00002   0.00003   0.00009   0.00012   2.63241
   R11        2.64774  -0.00001   0.00000  -0.00002  -0.00002   2.64772
   R12        2.06493  -0.00002   0.00003   0.00008   0.00011   2.06504
   R13        2.64379   0.00002  -0.00001  -0.00003  -0.00004   2.64375
   R14        2.06596  -0.00001   0.00002   0.00004   0.00006   2.06602
   R15        2.64774  -0.00002  -0.00000   0.00001   0.00001   2.64775
   R16        2.06592  -0.00001   0.00002   0.00004   0.00006   2.06598
   R17        2.61847  -0.00001   0.00002   0.00005   0.00007   2.61854
   R18        2.06493  -0.00002   0.00003   0.00008   0.00010   2.06504
   R19        2.82385   0.00020   0.00027   0.00077   0.00103   2.82488
   R20        2.27938   0.00002   0.00002   0.00005   0.00007   2.27945
    A1        1.92814  -0.00000   0.00012   0.01017   0.01030   1.93844
    A2        1.92937   0.00000   0.00016  -0.00949  -0.00932   1.92005
    A3        1.88129   0.00008  -0.00017  -0.00011  -0.00029   1.88099
    A4        1.90423  -0.00002   0.00016   0.00027   0.00045   1.90468
    A5        1.91040  -0.00002  -0.00013  -0.00321  -0.00335   1.90705
    A6        1.91021  -0.00003  -0.00015   0.00234   0.00218   1.91239
    A7        2.15291  -0.00002  -0.00007  -0.00065  -0.00074   2.15216
    A8        2.16967   0.00001  -0.00003   0.00040   0.00034   2.17001
    A9        1.96060   0.00001   0.00010   0.00025   0.00034   1.96094
   A10        2.18061   0.00001  -0.00014  -0.00055  -0.00069   2.17992
   A11        1.84853  -0.00003  -0.00010  -0.00019  -0.00029   1.84825
   A12        2.25404   0.00002   0.00024   0.00074   0.00098   2.25502
   A13        2.27694  -0.00002  -0.00003  -0.00011  -0.00014   2.27680
   A14        1.88366   0.00003   0.00005   0.00010   0.00015   1.88381
   A15        2.12258  -0.00001  -0.00002   0.00002  -0.00001   2.12258
   A16        2.04711   0.00001   0.00003   0.00006   0.00009   2.04719
   A17        2.11713  -0.00001  -0.00000  -0.00002  -0.00003   2.11710
   A18        2.11895  -0.00000  -0.00002  -0.00003  -0.00006   2.11889
   A19        2.11346  -0.00000  -0.00001  -0.00004  -0.00005   2.11341
   A20        2.08650   0.00000  -0.00000  -0.00000  -0.00000   2.08650
   A21        2.08322   0.00000   0.00001   0.00004   0.00006   2.08327
   A22        2.11333  -0.00000  -0.00001   0.00001   0.00000   2.11333
   A23        2.08327   0.00000   0.00001   0.00000   0.00002   2.08329
   A24        2.08659   0.00000  -0.00000  -0.00002  -0.00002   2.08656
   A25        2.04700   0.00001   0.00003   0.00008   0.00010   2.04711
   A26        2.11915   0.00000  -0.00003  -0.00009  -0.00012   2.11903
   A27        2.11704  -0.00001  -0.00000   0.00002   0.00002   2.11705
   A28        2.12289  -0.00000  -0.00002  -0.00012  -0.00014   2.12275
   A29        1.88618   0.00002   0.00006   0.00020   0.00026   1.88644
   A30        2.27411  -0.00002  -0.00004  -0.00008  -0.00012   2.27400
   A31        1.84580  -0.00003  -0.00011  -0.00035  -0.00045   1.84534
   A32        2.18934   0.00001  -0.00012  -0.00019  -0.00031   2.18903
   A33        2.24805   0.00002   0.00023   0.00053   0.00076   2.24881
    D1       -1.04048   0.00001   0.00037  -0.23716  -0.23678  -1.27726
    D2        2.10133   0.00001   0.00038  -0.25123  -0.25083   1.85050
    D3        1.06902  -0.00002   0.00075  -0.23636  -0.23562   0.83340
    D4       -2.07236  -0.00002   0.00077  -0.25043  -0.24967  -2.32203
    D5       -3.12708  -0.00001   0.00056  -0.23910  -0.23853   2.91757
    D6        0.01472  -0.00001   0.00058  -0.25317  -0.25258  -0.23786
    D7        0.00024  -0.00000   0.00002  -0.01200  -0.01198  -0.01174
    D8       -3.14156  -0.00000   0.00002  -0.01089  -0.01087   3.13075
    D9       -3.14154  -0.00000   0.00001   0.00056   0.00057  -3.14097
   D10       -0.00016  -0.00000   0.00000   0.00167   0.00167   0.00151
   D11       -3.14157   0.00000  -0.00001   0.01089   0.01088  -3.13069
   D12       -0.00005  -0.00000  -0.00001   0.01296   0.01295   0.01290
   D13        0.00021   0.00000   0.00000  -0.00182  -0.00182  -0.00160
   D14       -3.14145  -0.00000   0.00000   0.00026   0.00026  -3.14120
   D15       -3.14128   0.00000   0.00001  -0.00245  -0.00244   3.13946
   D16        0.00004   0.00000  -0.00000  -0.00082  -0.00082  -0.00079
   D17        0.00009   0.00000  -0.00000  -0.00127  -0.00128  -0.00118
   D18        3.14141   0.00000  -0.00001   0.00036   0.00035  -3.14143
   D19        3.14133   0.00000  -0.00001   0.00144   0.00143  -3.14043
   D20       -0.00025   0.00000  -0.00001   0.00118   0.00117   0.00092
   D21        0.00004   0.00000   0.00000  -0.00038  -0.00038  -0.00034
   D22       -3.14153  -0.00000   0.00000  -0.00064  -0.00064   3.14101
   D23       -3.14146  -0.00000   0.00001  -0.00133  -0.00132   3.14041
   D24        0.00009  -0.00000   0.00001  -0.00025  -0.00024  -0.00016
   D25       -0.00011   0.00000  -0.00000   0.00013   0.00013   0.00002
   D26        3.14143   0.00000  -0.00000   0.00121   0.00120  -3.14055
   D27        0.00005  -0.00000  -0.00000   0.00025   0.00025   0.00030
   D28       -3.14146  -0.00000   0.00000   0.00016   0.00016  -3.14130
   D29       -3.14156   0.00000  -0.00000   0.00052   0.00052  -3.14104
   D30        0.00012   0.00000   0.00000   0.00042   0.00043   0.00055
   D31       -0.00007   0.00000  -0.00000   0.00012   0.00012   0.00005
   D32        3.14152  -0.00000  -0.00000  -0.00003  -0.00003   3.14148
   D33        3.14143   0.00000  -0.00000   0.00022   0.00022  -3.14154
   D34       -0.00016   0.00000  -0.00000   0.00006   0.00006  -0.00010
   D35        0.00001   0.00000   0.00000  -0.00037  -0.00037  -0.00037
   D36       -3.14154  -0.00000   0.00000  -0.00046  -0.00046   3.14118
   D37       -3.14158   0.00000   0.00000  -0.00022  -0.00022   3.14138
   D38        0.00005  -0.00000   0.00000  -0.00031  -0.00031  -0.00025
   D39        0.00009  -0.00000  -0.00000   0.00025   0.00025   0.00034
   D40       -3.14145  -0.00000   0.00000  -0.00109  -0.00109   3.14065
   D41       -3.14155   0.00000  -0.00000   0.00034   0.00034  -3.14121
   D42        0.00010   0.00000   0.00000  -0.00100  -0.00100  -0.00090
   D43       -0.00018  -0.00000  -0.00001   0.00123   0.00122   0.00104
   D44        3.14149   0.00000  -0.00001  -0.00094  -0.00095   3.14054
   D45        3.14136   0.00000  -0.00001   0.00243   0.00242  -3.13940
   D46       -0.00015   0.00000  -0.00001   0.00026   0.00025   0.00010
         Item               Value     Threshold  Converged?
 Maximum Force            0.000222     0.000450     YES
 RMS     Force            0.000040     0.000300     YES
 Maximum Displacement     0.431831     0.001800     NO 
 RMS     Displacement     0.079464     0.001200     NO 
 Predicted change in Energy=-1.396514D-05
 Lowest energy point so far.  Saving SCF results.
 Step   3 in ReCalcFC=50 IGetFC= 0 compute gradient.
 GradGradGradGradGradGradGradGradGradGradGradGradGradGradGradGradGradGrad

 Leave Link  103 at Wed Feb 28 19:50:08 2024, MaxMem=  2147483648 cpu:               1.0 elap:               0.1
 (Enter /software/gaussian-16RevA.03-el7-x86_64/g16/l202.exe)
                          Input orientation:                          
 ---------------------------------------------------------------------
 Center     Atomic      Atomic             Coordinates (Angstroms)
 Number     Number       Type             X           Y           Z
 ---------------------------------------------------------------------
      1          6           0       -3.188383    0.256406    0.213358
      2          7           0       -1.750525    0.146526    0.127000
      3          6           0       -1.092569   -1.031437   -0.221653
      4          8           0       -1.637647   -2.077543   -0.475058
      5          6           0        0.365957   -0.705808   -0.205601
      6          6           0        1.467951   -1.502641   -0.471286
      7          6           0        2.731557   -0.905519   -0.371957
      8          6           0        2.868445    0.441054   -0.018058
      9          6           0        1.746347    1.236604    0.248694
     10          6           0        0.502262    0.634974    0.146817
     11          6           0       -0.864952    1.198921    0.364313
     12          8           0       -1.179618    2.319572    0.680734
     13          1           0       -3.646413    0.260512   -0.789460
     14          1           0       -3.596438   -0.585945    0.792919
     15          1           0       -3.422637    1.201725    0.722945
     16          1           0        1.355099   -2.554073   -0.746800
     17          1           0        3.626345   -1.500333   -0.574022
     18          1           0        3.868120    0.878193    0.051192
     19          1           0        1.847098    2.288810    0.525924
 ---------------------------------------------------------------------
                    Distance matrix (angstroms):
                    1          2          3          4          5
     1  C    0.000000
     2  N    1.444633   0.000000
     3  C    2.498041   1.393579   0.000000
     4  O    2.885484   2.306881   1.206508   0.000000
     5  C    3.706038   2.305775   1.494520   2.443091   0.000000
     6  C    5.024383   3.665554   2.615456   3.158364   1.385612
     7  C    6.061217   4.630855   3.829150   4.524844   2.379837
     8  C    6.064059   4.630623   4.230757   5.182378   2.759150
     9  C    5.031261   3.664859   3.663970   4.791534   2.425865
    10  C    3.710607   2.305217   2.335848   3.510512   1.393009
    11  C    2.511862   1.395741   2.317253   3.469412   2.338361
    12  O    2.917230   2.314019   3.471476   4.569494   3.511028
    13  H    1.102476   2.108858   2.917817   3.098466   4.168187
    14  H    1.100888   2.094602   2.738098   2.769385   4.088030
    15  H    1.099173   2.065079   3.362810   3.921097   4.342157
    16  H    5.428068   4.207335   2.930065   3.042606   2.165037
    17  H    7.081428   5.666950   4.755227   5.296469   3.375964
    18  H    7.085700   5.666591   5.322552   6.271107   3.852291
    19  H    5.439157   4.206116   4.497172   5.675425   3.420036
                    6          7          8          9         10
     6  C    0.000000
     7  C    1.401115   0.000000
     8  C    2.438185   1.399014   0.000000
     9  C    2.845933   2.438142   1.401129   0.000000
    10  C    2.425696   2.758986   2.379834   1.385670   0.000000
    11  C    3.665937   4.231506   3.828684   2.614128   1.494863
    12  O    4.790207   5.177515   4.517074   3.149722   2.439602
    13  H    5.419101   6.497110   6.562852   5.577847   4.269466
    14  H    5.299677   6.442250   6.595993   5.671262   4.325210
    15  H    5.714685   6.596468   6.380080   5.190811   4.007239
    16  H    1.092774   2.180110   3.433958   3.938695   3.419928
    17  H    2.160840   1.093289   2.156964   3.420831   3.852148
    18  H    3.420843   2.156956   1.093269   2.160876   3.375988
    19  H    3.938690   3.433976   2.180199   1.092769   2.165058
                   11         12         13         14         15
    11  C    0.000000
    12  O    1.206232   0.000000
    13  H    3.154097   3.533593   0.000000
    14  H    3.290967   3.780957   1.795247   0.000000
    15  H    2.582708   2.506492   1.795362   1.797460   0.000000
    16  H    4.499796   5.675832   5.739236   5.546349   6.252434
    17  H    5.323363   6.266049   7.485987   7.407647   7.659726
    18  H    4.754248   5.287112   7.586595   7.642871   7.328783
    19  H    2.927318   3.030829   6.001907   6.161785   5.384300
                   16         17         18         19
    16  H    0.000000
    17  H    2.509737   0.000000
    18  H    4.328108   2.471181   0.000000
    19  H    5.031442   4.328188   2.509927   0.000000
 Symmetry turned off by external request.
 Stoichiometry    C9H7NO2
 Framework group  C1[X(C9H7NO2)]
 Deg. of freedom    51
 Full point group                 C1      NOp   1
 Rotational constants (GHZ):           1.7410404           0.8643726           0.5797606
 Leave Link  202 at Wed Feb 28 19:50:08 2024, MaxMem=  2147483648 cpu:               1.1 elap:               0.1
 (Enter /software/gaussian-16RevA.03-el7-x86_64/g16/l301.exe)
 Standard basis: def2SVPP (5D, 7F)
 Ernie: Thresh=  0.10000D-02 Tol=  0.10000D-05 Strict=F.
   182 basis functions,   328 primitive gaussians,   194 cartesian basis functions
    42 alpha electrons       42 beta electrons
       nuclear repulsion energy       656.3862423873 Hartrees.
 IExCor= 4639 DFT=T Ex+Corr=wB97XD ExCW=0 ScaHFX=  1.000000
 ScaDFX=  1.000000  1.000000  1.000000  1.000000 ScalE2=  1.000000  1.000000
 IRadAn=      5 IRanWt=     -1 IRanGd=            0 ICorTp=0 IEmpDi=121
 HFx  wShort=  0.000000 wLong=  0.200000 cFull=  0.222036 cShort=  0.000000 cLong=  0.777964
 DFx  wShort=  0.000000 wLong=  0.200000 cFull=  0.000000 cShort=  0.000000 cLong=  1.000000
 NAtoms=   19 NActive=   19 NUniq=   19 SFac= 1.00D+00 NAtFMM=   60 NAOKFM=F Big=F
 Integral buffers will be    131072 words long.
 Raffenetti 2 integral format.
 Two-electron integral symmetry is turned off.
 R6Disp:  Grimme-D2 Dispersion energy=       -0.0100116087 Hartrees.
 Nuclear repulsion after empirical dispersion term =      656.3762307785 Hartrees.
 Force inversion solution in PCM.
 ------------------------------------------------------------------------------
 Polarizable Continuum Model (PCM)
 =================================
 Model                : PCM.
 Atomic radii         : UFF (Universal Force Field).
 Polarization charges : Total charges.
 Charge compensation  : None.
 Solution method      : Matrix inversion.
 Cavity type          : Scaled VdW (van der Waals Surface) (Alpha=1.100).
 Cavity algorithm     : GePol (No added spheres)
                        Default sphere list used, NSphG=   19.
                        Lebedev-Laikov grids with approx.  5.0 points / Ang**2.
                        Smoothing algorithm: York/Karplus (Gamma=1.0000).
                        Polarization charges: spherical gaussians, with
                                              point-specific exponents (IZeta= 3).
                        Self-potential: point-specific (ISelfS= 7).
                        Self-field    : sphere-specific E.n sum rule (ISelfD= 2).
 1st derivatives      : Analytical E(r).r(x)/FMM algorithm (CHGder, D1EAlg=3).
                        Cavity 1st derivative terms included.
 Solvent              : n,n-DiMethylFormamide, Eps=  37.219000 Eps(inf)=   2.046330
 ------------------------------------------------------------------------------
 Spheres list:
 ISph  on   Nord     Re0    Alpha      Xe            Ye            Ze
    1   C      1    1.9255  1.100     -3.188383      0.256406      0.213358
    2   N      2    1.8300  1.100     -1.750525      0.146526      0.127000
    3   C      3    1.9255  1.100     -1.092569     -1.031437     -0.221653
    4   O      4    1.7500  1.100     -1.637647     -2.077543     -0.475058
    5   C      5    1.9255  1.100      0.365957     -0.705808     -0.205601
    6   C      6    1.9255  1.100      1.467951     -1.502641     -0.471286
    7   C      7    1.9255  1.100      2.731557     -0.905519     -0.371957
    8   C      8    1.9255  1.100      2.868445      0.441054     -0.018058
    9   C      9    1.9255  1.100      1.746347      1.236604      0.248694
   10   C     10    1.9255  1.100      0.502262      0.634974      0.146817
   11   C     11    1.9255  1.100     -0.864952      1.198921      0.364313
   12   O     12    1.7500  1.100     -1.179618      2.319572      0.680734
   13   H     13    1.4430  1.100     -3.646413      0.260512     -0.789460
   14   H     14    1.4430  1.100     -3.596438     -0.585945      0.792919
   15   H     15    1.4430  1.100     -3.422637      1.201725      0.722945
   16   H     16    1.4430  1.100      1.355099     -2.554073     -0.746800
   17   H     17    1.4430  1.100      3.626345     -1.500333     -0.574022
   18   H     18    1.4430  1.100      3.868120      0.878193      0.051192
   19   H     19    1.4430  1.100      1.847098      2.288810      0.525924
 ------------------------------------------------------------------------------
 GePol: Number of generator spheres                  =      19
 GePol: Total number of spheres                      =      19
 GePol: Number of exposed spheres                    =      19 (100.00%)
 GePol: Number of points                             =    1674
 GePol: Average weight of points                     =       0.13
 GePol: Minimum weight of points                     =   0.78D-11
 GePol: Maximum weight of points                     =    0.20577
 GePol: Number of points with low weight             =     100
 GePol: Fraction of low-weight points (<1% of avg)   =       5.97%
 GePol: Cavity surface area                          =    216.049 Ang**2
 GePol: Cavity volume                                =    219.332 Ang**3
 Leave Link  301 at Wed Feb 28 19:50:08 2024, MaxMem=  2147483648 cpu:               2.1 elap:               0.1
 (Enter /software/gaussian-16RevA.03-el7-x86_64/g16/l302.exe)
 NPDir=0 NMtPBC=     1 NCelOv=     1 NCel=       1 NClECP=     1 NCelD=      1
         NCelK=      1 NCelE2=     1 NClLst=     1 CellRange=     0.0.
 One-electron integrals computed using PRISM.
   1 Symmetry operations used in ECPInt.
 ECPInt:  NShTT=    3741 NPrTT=   15055 LenC2=    3665 LenP2D=   11025.
 LDataN:  DoStor=T MaxTD1= 4 Len=   56
 NBasis=   182 RedAO= T EigKep=  2.79D-04  NBF=   182
 NBsUse=   182 1.00D-06 EigRej= -1.00D+00 NBFU=   182
 Precomputing XC quadrature grid using
 IXCGrd= 4 IRadAn=           5 IRanWt=          -1 IRanGd=           0 AccXCQ= 0.00D+00.
 Generated NRdTot=       0 NPtTot=           0 NUsed=           0 NTot=          32
 NSgBfM=   193   193   193   193   193 MxSgAt=    19 MxSgA2=    19.
 Leave Link  302 at Wed Feb 28 19:50:08 2024, MaxMem=  2147483648 cpu:               8.5 elap:               0.4
 (Enter /software/gaussian-16RevA.03-el7-x86_64/g16/l303.exe)
 DipDrv:  MaxL=1.
 Leave Link  303 at Wed Feb 28 19:50:08 2024, MaxMem=  2147483648 cpu:               1.7 elap:               0.1
 (Enter /software/gaussian-16RevA.03-el7-x86_64/g16/l401.exe)
 Initial guess from the checkpoint file:  "NMPHTH-cavity-in-DMF-wB97XD.chk"
 B after Tr=    -0.000017   -0.000086    0.001681
         Rot=    0.999969    0.007850   -0.000806   -0.000553 Ang=   0.91 deg.
 Guess basis will be translated and rotated to current coordinates.
 JPrj=2 DoOrth=T DoCkMO=T.
 Generating alternative initial guess.
 ExpMin= 1.22D-01 ExpMax= 2.27D+03 ExpMxC= 3.41D+02 IAcc=2 IRadAn=         4 AccDes= 0.00D+00
 Harris functional with IExCor= 4639 and IRadAn=       4 diagonalized for initial guess.
 HarFok:  IExCor= 4639 AccDes= 0.00D+00 IRadAn=         4 IDoV= 1 UseB2=F ITyADJ=14
 ICtDFT=  3500011 ScaDFX=  1.000000  1.000000  1.000000  1.000000
 FoFCou: FMM=F IPFlag=           0 FMFlag=      100000 FMFlg1=           0
         NFxFlg=           0 DoJE=T BraDBF=F KetDBF=T FulRan=T
         wScrn=  0.000000 ICntrl=       500 IOpCl=  0 I1Cent=   200000004 NGrid=           0
         NMat0=    1 NMatS0=      1 NMatT0=    0 NMatD0=    1 NMtDS0=    0 NMtDT0=    0
 Symmetry not used in FoFCou.
 Harris En= -528.820659454019    
 Leave Link  401 at Wed Feb 28 19:50:09 2024, MaxMem=  2147483648 cpu:              13.4 elap:               0.6
 (Enter /software/gaussian-16RevA.03-el7-x86_64/g16/l502.exe)
 Two-electron integral symmetry not used.
 Closed shell SCF:
 Using DIIS extrapolation, IDIIS=  1040.
 NGot=  2147483648 LenX=  2147401213 LenY=  2147363136
 Requested convergence on RMS density matrix=1.00D-08 within  32 cycles.
 Requested convergence on MAX density matrix=1.00D-06.
 Requested convergence on             energy=1.00D-06.
 No special actions if energy rises.
 Fock matrices will be formed incrementally for  20 cycles.

 Cycle   1  Pass 1  IDiag  1:
 FoFJK:  IHMeth= 1 ICntrl=       0 DoSepK=T KAlg= 0 I1Cent=           0 FoldK=F
 IRaf=         1 NMat=       1 IRICut=       1 DoRegI=T DoRafI=F ISym2E= 0 IDoP0=0 IntGTp=1.
 FoFCou: FMM=F IPFlag=           0 FMFlag=      100000 FMFlg1=           0
         NFxFlg=           0 DoJE=T BraDBF=F KetDBF=F FulRan=T
         wScrn=  0.000000 ICntrl=       500 IOpCl=  0 I1Cent=           0 NGrid=           0
         NMat0=    1 NMatS0=      1 NMatT0=    0 NMatD0=    1 NMtDS0=    0 NMtDT0=    0
 Symmetry not used in FoFCou.
 Inv3:  Mode=1 IEnd=     8406828.
 Iteration    1 A*A^-1 deviation from unit magnitude is 2.89D-15 for    619.
 Iteration    1 A*A^-1 deviation from orthogonality  is 1.55D-15 for   1613    417.
 Iteration    1 A^-1*A deviation from unit magnitude is 3.33D-15 for    619.
 Iteration    1 A^-1*A deviation from orthogonality  is 1.67D-15 for   1603    363.
 E= -551.810419146634    
 DIIS: error= 9.19D-03 at cycle   1 NSaved=   1.
 NSaved= 1 IEnMin= 1 EnMin= -551.810419146634     IErMin= 1 ErrMin= 9.19D-03
 ErrMax= 9.19D-03  0.00D+00 EMaxC= 1.00D-01 BMatC= 5.06D-03 BMatP= 5.06D-03
 IDIUse=3 WtCom= 9.08D-01 WtEn= 9.19D-02
 Coeff-Com:  0.100D+01
 Coeff-En:   0.100D+01
 Coeff:      0.100D+01
 Gap=     0.823 Goal=   None    Shift=    0.000
 GapD=    0.823 DampG=2.000 DampE=1.000 DampFc=2.0000 IDamp=-1.
 RMSDP=6.03D-04 MaxDP=3.10D-02              OVMax= 3.38D-02

 Cycle   2  Pass 1  IDiag  1:
 RMSU=  6.03D-04    CP:  9.99D-01
 E= -551.821449764604     Delta-E=       -0.011030617969 Rises=F Damp=F
 DIIS: error= 2.02D-03 at cycle   2 NSaved=   2.
 NSaved= 2 IEnMin= 2 EnMin= -551.821449764604     IErMin= 2 ErrMin= 2.02D-03
 ErrMax= 2.02D-03  0.00D+00 EMaxC= 1.00D-01 BMatC= 2.71D-04 BMatP= 5.06D-03
 IDIUse=3 WtCom= 9.80D-01 WtEn= 2.02D-02
 Coeff-Com: -0.274D+00 0.127D+01
 Coeff-En:   0.000D+00 0.100D+01
 Coeff:     -0.268D+00 0.127D+01
 Gap=     0.327 Goal=   None    Shift=    0.000
 RMSDP=2.15D-04 MaxDP=9.21D-03 DE=-1.10D-02 OVMax= 1.38D-02

 Cycle   3  Pass 1  IDiag  1:
 RMSU=  1.25D-04    CP:  9.99D-01  1.29D+00
 E= -551.822211987605     Delta-E=       -0.000762223001 Rises=F Damp=F
 DIIS: error= 2.23D-04 at cycle   3 NSaved=   3.
 NSaved= 3 IEnMin= 3 EnMin= -551.822211987605     IErMin= 3 ErrMin= 2.23D-04
 ErrMax= 2.23D-04  0.00D+00 EMaxC= 1.00D-01 BMatC= 6.38D-06 BMatP= 2.71D-04
 IDIUse=3 WtCom= 9.98D-01 WtEn= 2.23D-03
 Coeff-Com: -0.344D-01 0.122D+00 0.912D+00
 Coeff-En:   0.000D+00 0.000D+00 0.100D+01
 Coeff:     -0.343D-01 0.122D+00 0.912D+00
 Gap=     0.327 Goal=   None    Shift=    0.000
 RMSDP=3.53D-05 MaxDP=1.10D-03 DE=-7.62D-04 OVMax= 1.47D-03

 Cycle   4  Pass 1  IDiag  1:
 RMSU=  2.25D-05    CP:  9.99D-01  1.31D+00  1.20D+00
 E= -551.822222048203     Delta-E=       -0.000010060598 Rises=F Damp=F
 DIIS: error= 1.32D-04 at cycle   4 NSaved=   4.
 NSaved= 4 IEnMin= 4 EnMin= -551.822222048203     IErMin= 4 ErrMin= 1.32D-04
 ErrMax= 1.32D-04  0.00D+00 EMaxC= 1.00D-01 BMatC= 2.30D-06 BMatP= 6.38D-06
 IDIUse=3 WtCom= 9.99D-01 WtEn= 1.32D-03
 Coeff-Com:  0.274D-01-0.145D+00 0.369D+00 0.749D+00
 Coeff-En:   0.000D+00 0.000D+00 0.000D+00 0.100D+01
 Coeff:      0.273D-01-0.145D+00 0.369D+00 0.749D+00
 Gap=     0.327 Goal=   None    Shift=    0.000
 RMSDP=1.50D-05 MaxDP=4.38D-04 DE=-1.01D-05 OVMax= 5.19D-04

 Cycle   5  Pass 1  IDiag  1:
 RMSU=  6.91D-06    CP:  9.99D-01  1.31D+00  1.30D+00  8.42D-01
 E= -551.822224607562     Delta-E=       -0.000002559359 Rises=F Damp=F
 DIIS: error= 3.53D-05 at cycle   5 NSaved=   5.
 NSaved= 5 IEnMin= 5 EnMin= -551.822224607562     IErMin= 5 ErrMin= 3.53D-05
 ErrMax= 3.53D-05  0.00D+00 EMaxC= 1.00D-01 BMatC= 2.15D-07 BMatP= 2.30D-06
 IDIUse=1 WtCom= 1.00D+00 WtEn= 0.00D+00
 Coeff-Com:  0.149D-01-0.773D-01 0.147D+00 0.368D+00 0.547D+00
 Coeff:      0.149D-01-0.773D-01 0.147D+00 0.368D+00 0.547D+00
 Gap=     0.327 Goal=   None    Shift=    0.000
 RMSDP=2.82D-06 MaxDP=9.56D-05 DE=-2.56D-06 OVMax= 1.17D-04

 Cycle   6  Pass 1  IDiag  1:
 RMSU=  2.23D-06    CP:  9.99D-01  1.31D+00  1.31D+00  8.84D-01  8.86D-01
 E= -551.822224773911     Delta-E=       -0.000000166349 Rises=F Damp=F
 DIIS: error= 5.81D-06 at cycle   6 NSaved=   6.
 NSaved= 6 IEnMin= 6 EnMin= -551.822224773911     IErMin= 6 ErrMin= 5.81D-06
 ErrMax= 5.81D-06  0.00D+00 EMaxC= 1.00D-01 BMatC= 9.44D-09 BMatP= 2.15D-07
 IDIUse=1 WtCom= 1.00D+00 WtEn= 0.00D+00
 Coeff-Com:  0.565D-03-0.238D-02-0.821D-02 0.259D-03 0.156D+00 0.854D+00
 Coeff:      0.565D-03-0.238D-02-0.821D-02 0.259D-03 0.156D+00 0.854D+00
 Gap=     0.327 Goal=   None    Shift=    0.000
 RMSDP=1.11D-06 MaxDP=2.56D-05 DE=-1.66D-07 OVMax= 3.34D-05

 Cycle   7  Pass 1  IDiag  1:
 RMSU=  6.05D-07    CP:  9.99D-01  1.31D+00  1.32D+00  8.95D-01  9.88D-01
                    CP:  1.01D+00
 E= -551.822224783946     Delta-E=       -0.000000010035 Rises=F Damp=F
 DIIS: error= 2.96D-06 at cycle   7 NSaved=   7.
 NSaved= 7 IEnMin= 7 EnMin= -551.822224783946     IErMin= 7 ErrMin= 2.96D-06
 ErrMax= 2.96D-06  0.00D+00 EMaxC= 1.00D-01 BMatC= 1.62D-09 BMatP= 9.44D-09
 IDIUse=1 WtCom= 1.00D+00 WtEn= 0.00D+00
 Coeff-Com: -0.715D-03 0.395D-02-0.133D-01-0.243D-01 0.336D-01 0.388D+00
 Coeff-Com:  0.613D+00
 Coeff:     -0.715D-03 0.395D-02-0.133D-01-0.243D-01 0.336D-01 0.388D+00
 Coeff:      0.613D+00
 Gap=     0.327 Goal=   None    Shift=    0.000
 RMSDP=3.19D-07 MaxDP=6.42D-06 DE=-1.00D-08 OVMax= 1.13D-05

 Cycle   8  Pass 1  IDiag  1:
 RMSU=  2.41D-07    CP:  9.99D-01  1.31D+00  1.32D+00  8.98D-01  1.01D+00
                    CP:  1.07D+00  8.86D-01
 E= -551.822224785552     Delta-E=       -0.000000001606 Rises=F Damp=F
 DIIS: error= 8.60D-07 at cycle   8 NSaved=   8.
 NSaved= 8 IEnMin= 8 EnMin= -551.822224785552     IErMin= 8 ErrMin= 8.60D-07
 ErrMax= 8.60D-07  0.00D+00 EMaxC= 1.00D-01 BMatC= 1.60D-10 BMatP= 1.62D-09
 IDIUse=1 WtCom= 1.00D+00 WtEn= 0.00D+00
 Coeff-Com: -0.351D-03 0.184D-02-0.394D-02-0.925D-02-0.820D-02 0.273D-01
 Coeff-Com:  0.227D+00 0.766D+00
 Coeff:     -0.351D-03 0.184D-02-0.394D-02-0.925D-02-0.820D-02 0.273D-01
 Coeff:      0.227D+00 0.766D+00
 Gap=     0.327 Goal=   None    Shift=    0.000
 RMSDP=1.40D-07 MaxDP=2.90D-06 DE=-1.61D-09 OVMax= 7.38D-06

 Cycle   9  Pass 1  IDiag  1:
 RMSU=  8.38D-08    CP:  9.99D-01  1.31D+00  1.32D+00  8.99D-01  1.01D+00
                    CP:  1.09D+00  1.01D+00  1.06D+00
 E= -551.822224785805     Delta-E=       -0.000000000254 Rises=F Damp=F
 DIIS: error= 3.48D-07 at cycle   9 NSaved=   9.
 NSaved= 9 IEnMin= 9 EnMin= -551.822224785805     IErMin= 9 ErrMin= 3.48D-07
 ErrMax= 3.48D-07  0.00D+00 EMaxC= 1.00D-01 BMatC= 2.80D-11 BMatP= 1.60D-10
 IDIUse=1 WtCom= 1.00D+00 WtEn= 0.00D+00
 Coeff-Com: -0.824D-05 0.861D-05 0.818D-03 0.678D-03-0.852D-02-0.576D-01
 Coeff-Com: -0.165D-01 0.282D+00 0.799D+00
 Coeff:     -0.824D-05 0.861D-05 0.818D-03 0.678D-03-0.852D-02-0.576D-01
 Coeff:     -0.165D-01 0.282D+00 0.799D+00
 Gap=     0.327 Goal=   None    Shift=    0.000
 RMSDP=6.98D-08 MaxDP=1.47D-06 DE=-2.54D-10 OVMax= 4.72D-06

 Cycle  10  Pass 1  IDiag  1:
 RMSU=  3.47D-08    CP:  9.99D-01  1.31D+00  1.32D+00  8.99D-01  1.02D+00
                    CP:  1.10D+00  1.06D+00  1.23D+00  1.06D+00
 E= -551.822224785860     Delta-E=       -0.000000000055 Rises=F Damp=F
 DIIS: error= 2.71D-07 at cycle  10 NSaved=  10.
 NSaved=10 IEnMin=10 EnMin= -551.822224785860     IErMin=10 ErrMin= 2.71D-07
 ErrMax= 2.71D-07  0.00D+00 EMaxC= 1.00D-01 BMatC= 6.86D-12 BMatP= 2.80D-11
 IDIUse=1 WtCom= 1.00D+00 WtEn= 0.00D+00
 Coeff-Com:  0.553D-04-0.306D-03 0.105D-02 0.190D-02-0.239D-02-0.319D-01
 Coeff-Com: -0.466D-01-0.211D-02 0.379D+00 0.701D+00
 Coeff:      0.553D-04-0.306D-03 0.105D-02 0.190D-02-0.239D-02-0.319D-01
 Coeff:     -0.466D-01-0.211D-02 0.379D+00 0.701D+00
 Gap=     0.327 Goal=   None    Shift=    0.000
 RMSDP=2.74D-08 MaxDP=7.46D-07 DE=-5.49D-11 OVMax= 2.23D-06

 Cycle  11  Pass 1  IDiag  1:
 RMSU=  1.67D-08    CP:  9.99D-01  1.31D+00  1.32D+00  8.99D-01  1.02D+00
                    CP:  1.10D+00  1.08D+00  1.27D+00  1.22D+00  1.08D+00
 E= -551.822224785878     Delta-E=       -0.000000000017 Rises=F Damp=F
 DIIS: error= 7.02D-08 at cycle  11 NSaved=  11.
 NSaved=11 IEnMin=11 EnMin= -551.822224785878     IErMin=11 ErrMin= 7.02D-08
 ErrMax= 7.02D-08  0.00D+00 EMaxC= 1.00D-01 BMatC= 6.01D-13 BMatP= 6.86D-12
 IDIUse=1 WtCom= 1.00D+00 WtEn= 0.00D+00
 Coeff-Com:  0.903D-05-0.431D-04-0.427D-05 0.122D-03 0.128D-02 0.639D-02
 Coeff-Com: -0.363D-02-0.532D-01-0.106D+00 0.105D+00 0.105D+01
 Coeff:      0.903D-05-0.431D-04-0.427D-05 0.122D-03 0.128D-02 0.639D-02
 Coeff:     -0.363D-02-0.532D-01-0.106D+00 0.105D+00 0.105D+01
 Gap=     0.327 Goal=   None    Shift=    0.000
 RMSDP=1.58D-08 MaxDP=4.95D-07 DE=-1.73D-11 OVMax= 1.47D-06

 Cycle  12  Pass 1  IDiag  1:
 RMSU=  5.15D-09    CP:  9.99D-01  1.31D+00  1.32D+00  8.99D-01  1.02D+00
                    CP:  1.10D+00  1.09D+00  1.29D+00  1.30D+00  1.37D+00
                    CP:  1.33D+00
 E= -551.822224785884     Delta-E=       -0.000000000007 Rises=F Damp=F
 DIIS: error= 2.08D-08 at cycle  12 NSaved=  12.
 NSaved=12 IEnMin=12 EnMin= -551.822224785884     IErMin=12 ErrMin= 2.08D-08
 ErrMax= 2.08D-08  0.00D+00 EMaxC= 1.00D-01 BMatC= 6.63D-14 BMatP= 6.01D-13
 IDIUse=1 WtCom= 1.00D+00 WtEn= 0.00D+00
 Coeff-Com: -0.585D-05 0.335D-04-0.140D-03-0.236D-03 0.530D-03 0.536D-02
 Coeff-Com:  0.572D-02-0.795D-02-0.671D-01-0.779D-01 0.164D+00 0.977D+00
 Coeff:     -0.585D-05 0.335D-04-0.140D-03-0.236D-03 0.530D-03 0.536D-02
 Coeff:      0.572D-02-0.795D-02-0.671D-01-0.779D-01 0.164D+00 0.977D+00
 Gap=     0.327 Goal=   None    Shift=    0.000
 RMSDP=5.64D-09 MaxDP=1.62D-07 DE=-6.82D-12 OVMax= 4.60D-07

 Error on total polarization charges =  0.00721
 SCF Done:  E(RwB97XD) =  -551.822224786     A.U. after   12 cycles
            NFock= 12  Conv=0.56D-08     -V/T= 2.0095
 KE= 5.466471058962D+02 PE=-2.597104139761D+03 EE= 8.422585783000D+02
 Leave Link  502 at Wed Feb 28 19:50:20 2024, MaxMem=  2147483648 cpu:             311.3 elap:              11.4
 (Enter /software/gaussian-16RevA.03-el7-x86_64/g16/l508.exe)
 QCSCF skips out because SCF is already converged.
 Leave Link  508 at Wed Feb 28 19:50:20 2024, MaxMem=  2147483648 cpu:               1.0 elap:               0.1
 (Enter /software/gaussian-16RevA.03-el7-x86_64/g16/l801.exe)
 DoSCS=F DFT=T ScalE2(SS,OS)=  1.000000  1.000000
 Range of M.O.s used for correlation:     1   182
 NBasis=   182 NAE=    42 NBE=    42 NFC=     0 NFV=     0
 NROrb=    182 NOA=    42 NOB=    42 NVA=   140 NVB=   140

 **** Warning!!: The largest alpha MO coefficient is  0.16620796D+02

 Leave Link  801 at Wed Feb 28 19:50:20 2024, MaxMem=  2147483648 cpu:               0.5 elap:               0.0
 (Enter /software/gaussian-16RevA.03-el7-x86_64/g16/l1101.exe)
 Leave Link 1101 at Wed Feb 28 19:50:20 2024, MaxMem=  2147483648 cpu:               1.0 elap:               0.1
 (Enter /software/gaussian-16RevA.03-el7-x86_64/g16/l1102.exe)
 Symmetrizing basis deriv contribution to polar:
 IMax=3 JMax=2 DiffMx= 0.00D+00
 Leave Link 1102 at Wed Feb 28 19:50:20 2024, MaxMem=  2147483648 cpu:               1.3 elap:               0.1
 (Enter /software/gaussian-16RevA.03-el7-x86_64/g16/l1110.exe)
 Leave Link 1110 at Wed Feb 28 19:50:21 2024, MaxMem=  2147483648 cpu:               1.7 elap:               0.1
 (Enter /software/gaussian-16RevA.03-el7-x86_64/g16/l1002.exe)
 Minotr:  Closed shell wavefunction.
 Leave Link 1002 at Wed Feb 28 19:50:21 2024, MaxMem=  2147483648 cpu:               1.6 elap:               0.1
 (Enter /software/gaussian-16RevA.03-el7-x86_64/g16/l701.exe)
 ... and contract with generalized density number  0.
 Compute integral first derivatives.
 R6Disp: Adding Grimme-D2 dispersion energy 1st derivatives to the gradient.
   1 Symmetry operations used in ECPInt.
 ECPInt:  NShTT=    3741 NPrTT=   15055 LenC2=    3665 LenP2D=   11025.
 LDataN:  DoStor=T MaxTD1= 5 Len=  102
 D1PCM: PCM CHGder 1st derivatives, ID1Alg=3 FixD1E=F DoIter=F DoCFld=F I1PDM=0.
 GePol: Maximum number of non-zero 1st derivatives   =     219
 Leave Link  701 at Wed Feb 28 19:50:21 2024, MaxMem=  2147483648 cpu:              20.1 elap:               0.8
 (Enter /software/gaussian-16RevA.03-el7-x86_64/g16/l702.exe)
 L702 exits ... SP integral derivatives will be done elsewhere.
 Leave Link  702 at Wed Feb 28 19:50:21 2024, MaxMem=  2147483648 cpu:               0.7 elap:               0.1
 (Enter /software/gaussian-16RevA.03-el7-x86_64/g16/l703.exe)
 Integral derivatives from FoFJK, PRISM(SPDF).
 Compute integral first derivatives, UseDBF=F ICtDFT=           0.
 Calling FoFJK, ICntrl=      2127 FMM=F ISym2X=0 I1Cent= 0 IOpClX= 0 NMat=1 NMatS=1 NMatT=0.
 FoFJK:  IHMeth= 1 ICntrl=    2127 DoSepK=T KAlg= 0 I1Cent=           0 FoldK=F
 IRaf=         1 NMat=       1 IRICut=       1 DoRegI=T DoRafI=F ISym2E= 0 IDoP0=0 IntGTp=1.
 FoFCou: FMM=F IPFlag=           0 FMFlag=      100000 FMFlg1=         800
         NFxFlg=           0 DoJE=F BraDBF=F KetDBF=F FulRan=T
         wScrn=  0.000000 ICntrl=      2527 IOpCl=  0 I1Cent=           0 NGrid=           0
         NMat0=    1 NMatS0=      1 NMatT0=    0 NMatD0=    1 NMtDS0=    0 NMtDT0=    0
 Symmetry not used in FoFCou.
 Leave Link  703 at Wed Feb 28 19:50:23 2024, MaxMem=  2147483648 cpu:              51.9 elap:               1.9
 (Enter /software/gaussian-16RevA.03-el7-x86_64/g16/l716.exe)
 Dipole        = 1.15944049D+00-8.74916653D-02-7.99171323D-02
 Polarizability= 0.00000000D+00 0.00000000D+00 0.00000000D+00
                 0.00000000D+00 0.00000000D+00 0.00000000D+00
 -------------------------------------------------------------------
 Center     Atomic                   Forces (Hartrees/Bohr)
 Number     Number              X              Y              Z
 -------------------------------------------------------------------
      1        6           0.000102946    0.000818326    0.000711217
      2        7           0.000109732   -0.000390172   -0.000212157
      3        6          -0.000181219    0.000068539   -0.000116889
      4        8           0.000357000   -0.000039301   -0.000092685
      5        6          -0.000038974   -0.000075760    0.000074543
      6        6          -0.000025805   -0.000049404    0.000011829
      7        6           0.000010483   -0.000040724   -0.000025583
      8        6           0.000021304    0.000045824    0.000011083
      9        6          -0.000023616    0.000027152    0.000009313
     10        6          -0.000013421    0.000030046    0.000027861
     11        6          -0.000225721   -0.000220770   -0.000014439
     12        8           0.000014245   -0.000147818   -0.000060200
     13        1           0.000146507   -0.000126253   -0.000051806
     14        1           0.000304746    0.000062131   -0.000125440
     15        1          -0.000481481    0.000018563   -0.000143050
     16        1           0.000001850    0.000061813    0.000016193
     17        1          -0.000028695    0.000024143   -0.000000865
     18        1          -0.000032025   -0.000010412   -0.000005551
     19        1          -0.000017854   -0.000055923   -0.000013374
 -------------------------------------------------------------------
 Cartesian Forces:  Max     0.000818326 RMS     0.000194197
 Leave Link  716 at Wed Feb 28 19:50:23 2024, MaxMem=  2147483648 cpu:               2.1 elap:               0.1
 (Enter /software/gaussian-16RevA.03-el7-x86_64/g16/l103.exe)

 GradGradGradGradGradGradGradGradGradGradGradGradGradGradGradGradGradGrad
 Berny optimization.
 Using GEDIIS/GDIIS optimizer.
 FormGI is forming the generalized inverse of G from B-inverse, IUseBI=4.
 Internal  Forces:  Max     0.000883082 RMS     0.000154699
 Step   4 in ReCalcFC=50 IGetFC= 0 update Hessian.
 Search for a local minimum.
 Step number   4 out of a maximum of  114
 All quantities printed in internal units (Hartrees-Bohrs-Radians)
 RMS Force = .15470D-03 SwitMx=.10000D-02 MixMth= 2
 Mixed Optimization -- En-DIIS/RFO-DIIS
 Update second derivatives using D2CorX and points    1    2    4    3
 ITU=  0  1  1  0
 Use linear search instead of GDIIS.
     Eigenvalues ---    0.00029   0.00617   0.01006   0.01482   0.01590
     Eigenvalues ---    0.01799   0.01860   0.02151   0.02430   0.02713
     Eigenvalues ---    0.03030   0.03199   0.04332   0.04945   0.06048
     Eigenvalues ---    0.06228   0.10727   0.10761   0.12095   0.12460
     Eigenvalues ---    0.13432   0.14833   0.16801   0.18683   0.19081
     Eigenvalues ---    0.19208   0.19702   0.20901   0.23987   0.24424
     Eigenvalues ---    0.25352   0.28391   0.30285   0.35537   0.35889
     Eigenvalues ---    0.36174   0.36749   0.37301   0.37496   0.37893
     Eigenvalues ---    0.38127   0.38387   0.39419   0.41286   0.43494
     Eigenvalues ---    0.43745   0.49026   0.51078   0.53901   0.85883
     Eigenvalues ---    0.88314
 RFO step:  Lambda=-5.07409413D-07 EMin= 2.89043020D-04
 Quartic linear search produced a step of -0.93651.
 Iteration  1 RMS(Cart)=  0.06509763 RMS(Int)=  0.00924835
 Iteration  2 RMS(Cart)=  0.01142535 RMS(Int)=  0.00016947
 Iteration  3 RMS(Cart)=  0.00018965 RMS(Int)=  0.00000085
 Iteration  4 RMS(Cart)=  0.00000005 RMS(Int)=  0.00000084
 ITry= 1 IFail=0 DXMaxC= 4.03D-01 DCOld= 1.00D+10 DXMaxT= 5.05D-01 DXLimC= 3.00D+00 Rises=F
 Variable       Old X    -DE/DX   Delta X   Delta X   Delta X     New X
                                 (Linear)    (Quad)   (Total)
    R1        2.72996   0.00001  -0.00003   0.00000  -0.00002   2.72994
    R2        2.08338  -0.00001  -0.00157  -0.00004  -0.00161   2.08176
    R3        2.08038  -0.00023   0.00139  -0.00004   0.00135   2.08173
    R4        2.07714   0.00005  -0.00018  -0.00001  -0.00019   2.07694
    R5        2.63348   0.00019  -0.00065   0.00028  -0.00037   2.63312
    R6        2.63757  -0.00039  -0.00082   0.00036  -0.00046   2.63711
    R7        2.27997  -0.00011  -0.00007  -0.00003  -0.00011   2.27986
    R8        2.82423  -0.00011  -0.00085   0.00063  -0.00022   2.82401
    R9        2.61843  -0.00004  -0.00004  -0.00002  -0.00006   2.61836
   R10        2.63241  -0.00009  -0.00011  -0.00007  -0.00018   2.63223
   R11        2.64772  -0.00001   0.00002  -0.00003  -0.00002   2.64770
   R12        2.06504  -0.00006  -0.00010  -0.00007  -0.00017   2.06487
   R13        2.64375   0.00002   0.00003   0.00006   0.00009   2.64385
   R14        2.06602  -0.00004  -0.00006  -0.00004  -0.00009   2.06592
   R15        2.64775  -0.00002  -0.00001  -0.00004  -0.00005   2.64770
   R16        2.06598  -0.00003  -0.00005  -0.00004  -0.00009   2.06589
   R17        2.61854  -0.00006  -0.00007  -0.00002  -0.00009   2.61845
   R18        2.06504  -0.00006  -0.00010  -0.00006  -0.00016   2.06488
   R19        2.82488  -0.00011  -0.00097   0.00055  -0.00042   2.82446
   R20        2.27945  -0.00016  -0.00007  -0.00006  -0.00012   2.27933
    A1        1.93844  -0.00035  -0.00964  -0.00006  -0.00971   1.92873
    A2        1.92005  -0.00045   0.00873  -0.00016   0.00856   1.92861
    A3        1.88099   0.00088   0.00027   0.00085   0.00112   1.88212
    A4        1.90468   0.00014  -0.00042  -0.00036  -0.00079   1.90389
    A5        1.90705  -0.00017   0.00314  -0.00011   0.00303   1.91009
    A6        1.91239  -0.00005  -0.00204  -0.00014  -0.00218   1.91021
    A7        2.15216   0.00045   0.00070  -0.00005   0.00065   2.15282
    A8        2.17001  -0.00040  -0.00032  -0.00010  -0.00041   2.16960
    A9        1.96094  -0.00005  -0.00031   0.00014  -0.00017   1.96077
   A10        2.17992   0.00042   0.00065   0.00018   0.00083   2.18074
   A11        1.84825  -0.00004   0.00027  -0.00018   0.00009   1.84834
   A12        2.25502  -0.00038  -0.00092   0.00000  -0.00092   2.25410
   A13        2.27680  -0.00002   0.00013  -0.00011   0.00002   2.27683
   A14        1.88381  -0.00000  -0.00014   0.00011  -0.00003   1.88378
   A15        2.12258   0.00002   0.00001  -0.00000   0.00000   2.12258
   A16        2.04719  -0.00001  -0.00008   0.00002  -0.00006   2.04713
   A17        2.11710  -0.00000   0.00003  -0.00004  -0.00002   2.11708
   A18        2.11889   0.00001   0.00005   0.00002   0.00008   2.11897
   A19        2.11341  -0.00001   0.00005  -0.00002   0.00003   2.11344
   A20        2.08650   0.00001   0.00000   0.00001   0.00002   2.08651
   A21        2.08327   0.00000  -0.00005   0.00001  -0.00005   2.08323
   A22        2.11333  -0.00001  -0.00000  -0.00002  -0.00003   2.11331
   A23        2.08329   0.00001  -0.00002   0.00001  -0.00001   2.08328
   A24        2.08656   0.00001   0.00002   0.00001   0.00003   2.08660
   A25        2.04711  -0.00001  -0.00010   0.00001  -0.00009   2.04702
   A26        2.11903   0.00001   0.00011   0.00003   0.00014   2.11916
   A27        2.11705  -0.00001  -0.00001  -0.00004  -0.00005   2.11700
   A28        2.12275   0.00002   0.00013   0.00001   0.00014   2.12289
   A29        1.88644  -0.00003  -0.00024   0.00006  -0.00018   1.88626
   A30        2.27400   0.00001   0.00011  -0.00007   0.00004   2.27404
   A31        1.84534   0.00013   0.00042  -0.00013   0.00029   1.84564
   A32        2.18903  -0.00009   0.00029   0.00001   0.00030   2.18933
   A33        2.24881  -0.00003  -0.00071   0.00012  -0.00059   2.24822
    D1       -1.27726   0.00023   0.22175  -0.00077   0.22098  -1.05628
    D2        1.85050   0.00023   0.23490  -0.00066   0.23424   2.08474
    D3        0.83340  -0.00012   0.22066  -0.00137   0.21929   1.05268
    D4       -2.32203  -0.00012   0.23382  -0.00127   0.23255  -2.08949
    D5        2.91757   0.00009   0.22339  -0.00113   0.22227   3.13984
    D6       -0.23786   0.00009   0.23655  -0.00102   0.23552  -0.00233
    D7       -0.01174   0.00004   0.01121   0.00008   0.01130  -0.00044
    D8        3.13075   0.00005   0.01018   0.00013   0.01031   3.14106
    D9       -3.14097   0.00004  -0.00053  -0.00001  -0.00054  -3.14152
   D10        0.00151   0.00006  -0.00157   0.00004  -0.00153  -0.00001
   D11       -3.13069  -0.00005  -0.01019  -0.00015  -0.01034  -3.14103
   D12        0.01290  -0.00003  -0.01213  -0.00018  -0.01231   0.00059
   D13       -0.00160  -0.00005   0.00170  -0.00006   0.00164   0.00004
   D14       -3.14120  -0.00002  -0.00024  -0.00009  -0.00033  -3.14153
   D15        3.13946  -0.00002   0.00229  -0.00004   0.00224  -3.14148
   D16       -0.00079  -0.00004   0.00077  -0.00001   0.00076  -0.00002
   D17       -0.00118  -0.00001   0.00119   0.00001   0.00120   0.00002
   D18       -3.14143  -0.00003  -0.00032   0.00005  -0.00028   3.14148
   D19       -3.14043  -0.00003  -0.00134   0.00005  -0.00129   3.14147
   D20        0.00092  -0.00002  -0.00109   0.00004  -0.00105  -0.00013
   D21       -0.00034  -0.00000   0.00036   0.00001   0.00037   0.00003
   D22        3.14101   0.00001   0.00060   0.00000   0.00060  -3.14158
   D23        3.14041   0.00002   0.00123  -0.00004   0.00119  -3.14159
   D24       -0.00016   0.00002   0.00023  -0.00003   0.00020   0.00004
   D25        0.00002  -0.00000  -0.00012  -0.00001  -0.00013  -0.00011
   D26       -3.14055  -0.00000  -0.00113   0.00001  -0.00112   3.14152
   D27        0.00030   0.00001  -0.00024  -0.00000  -0.00024   0.00006
   D28       -3.14130   0.00001  -0.00015  -0.00001  -0.00016  -3.14146
   D29       -3.14104  -0.00001  -0.00048   0.00001  -0.00048  -3.14152
   D30        0.00055  -0.00000  -0.00040  -0.00000  -0.00040   0.00014
   D31        0.00005  -0.00000  -0.00012  -0.00000  -0.00012  -0.00007
   D32        3.14148   0.00000   0.00003  -0.00001   0.00002   3.14151
   D33       -3.14154  -0.00000  -0.00020   0.00000  -0.00020   3.14145
   D34       -0.00010  -0.00000  -0.00006  -0.00000  -0.00006  -0.00016
   D35       -0.00037  -0.00000   0.00035   0.00001   0.00036  -0.00001
   D36        3.14118   0.00000   0.00043  -0.00001   0.00042  -3.14158
   D37        3.14138  -0.00001   0.00020   0.00001   0.00021  -3.14159
   D38       -0.00025  -0.00000   0.00029  -0.00001   0.00028   0.00003
   D39        0.00034   0.00000  -0.00023   0.00000  -0.00023   0.00010
   D40        3.14065   0.00001   0.00102  -0.00002   0.00100  -3.14154
   D41       -3.14121  -0.00000  -0.00032   0.00002  -0.00030  -3.14151
   D42       -0.00090   0.00000   0.00094   0.00000   0.00094   0.00003
   D43        0.00104   0.00002  -0.00114   0.00005  -0.00109  -0.00005
   D44        3.14054  -0.00001   0.00089   0.00008   0.00097   3.14151
   D45       -3.13940   0.00001  -0.00227   0.00007  -0.00220   3.14158
   D46        0.00010  -0.00001  -0.00023   0.00010  -0.00013  -0.00004
         Item               Value     Threshold  Converged?
 Maximum Force            0.000883     0.000450     NO 
 RMS     Force            0.000155     0.000300     YES
 Maximum Displacement     0.403457     0.001800     NO 
 RMS     Displacement     0.074099     0.001200     NO 
 Predicted change in Energy=-7.357601D-06
 Step   4 in ReCalcFC=50 IGetFC= 0 compute gradient.
 GradGradGradGradGradGradGradGradGradGradGradGradGradGradGradGradGradGrad

 Leave Link  103 at Wed Feb 28 19:50:24 2024, MaxMem=  2147483648 cpu:               2.9 elap:               0.1
 (Enter /software/gaussian-16RevA.03-el7-x86_64/g16/l202.exe)
                          Input orientation:                          
 ---------------------------------------------------------------------
 Center     Atomic      Atomic             Coordinates (Angstroms)
 Number     Number       Type             X           Y           Z
 ---------------------------------------------------------------------
      1          6           0       -3.188124    0.255544    0.217885
      2          7           0       -1.750740    0.147408    0.122163
      3          6           0       -1.093622   -1.024891   -0.245850
      4          8           0       -1.638675   -2.065333   -0.521394
      5          6           0        0.365285   -0.702242   -0.218930
      6          6           0        1.466686   -1.495317   -0.497810
      7          6           0        2.730879   -0.902036   -0.384100
      8          6           0        2.868867    0.437281   -0.003880
      9          6           0        1.747283    1.229146    0.275559
     10          6           0        0.502708    0.631216    0.159515
     11          6           0       -0.864139    1.192881    0.383593
     12          8           0       -1.177472    2.308115    0.719623
     13          1           0       -3.656628    0.047012   -0.757098
     14          1           0       -3.579496   -0.453535    0.964588
     15          1           0       -3.428636    1.282424    0.527127
     16          1           0        1.352913   -2.540841   -0.794280
     17          1           0        3.625267   -1.494041   -0.595689
     18          1           0        3.868956    0.871524    0.076033
     19          1           0        1.848686    2.275682    0.572946
 ---------------------------------------------------------------------
                    Distance matrix (angstroms):
                    1          2          3          4          5
     1  C    0.000000
     2  N    1.444621   0.000000
     3  C    2.498301   1.393386   0.000000
     4  O    2.886832   2.307151   1.206452   0.000000
     5  C    3.706060   2.305604   1.494402   2.442408   0.000000
     6  C    5.024440   3.665343   2.615332   3.157331   1.385578
     7  C    6.061103   4.630609   3.828970   4.523838   2.379754
     8  C    6.063774   4.630408   4.230581   5.181586   2.759109
     9  C    5.030852   3.664676   3.663781   4.790974   2.425839
    10  C    3.710362   2.305102   2.335655   3.510062   1.392916
    11  C    2.511368   1.395500   2.316760   3.469130   2.337949
    12  O    2.916764   2.313925   3.471037   4.569450   3.510445
    13  H    1.101622   2.101331   2.824775   2.930818   4.126354
    14  H    1.101604   2.101229   2.823328   2.927938   4.125999
    15  H    1.099072   2.065815   3.372460   3.938380   4.346186
    16  H    5.428192   4.207043   2.929917   3.041410   2.164922
    17  H    7.081331   5.666667   4.755040   5.295374   3.375852
    18  H    7.085332   5.666344   5.322328   6.270251   3.852201
    19  H    5.438427   4.205784   4.496820   5.674829   3.419880
                    6          7          8          9         10
     6  C    0.000000
     7  C    1.401105   0.000000
     8  C    2.438240   1.399063   0.000000
     9  C    2.845968   2.438144   1.401102   0.000000
    10  C    2.425587   2.758826   2.379709   1.385623   0.000000
    11  C    3.665518   4.231096   3.828368   2.613907   1.494640
    12  O    4.789552   5.176724   4.516230   3.148898   2.438999
    13  H    5.356711   6.468389   6.580405   5.627262   4.299018
    14  H    5.356106   6.468457   6.581251   5.628565   4.299909
    15  H    5.721059   6.598622   6.376110   5.182302   4.001834
    16  H    1.092684   2.180073   3.433957   3.938640   3.419725
    17  H    2.160800   1.093239   2.156939   3.420767   3.851938
    18  H    3.420838   2.156955   1.093220   2.160834   3.375847
    19  H    3.938639   3.433962   2.180187   1.092685   2.164914
                   11         12         13         14         15
    11  C    0.000000
    12  O    1.206168   0.000000
    13  H    3.226792   3.665993   0.000000
    14  H    3.228220   3.668302   1.794630   0.000000
    15  H    2.570071   2.481297   1.796513   1.796576   0.000000
    16  H    4.499265   5.675132   5.638606   5.637298   6.263121
    17  H    5.322904   6.265201   7.444924   7.444846   7.663356
    18  H    4.753951   5.286250   7.616321   7.617398   7.323057
    19  H    2.927069   3.029884   6.086417   6.088282   5.370176
                   16         17         18         19
    16  H    0.000000
    17  H    2.509745   0.000000
    18  H    4.328065   2.471131   0.000000
    19  H    5.031302   4.328136   2.509995   0.000000
 Symmetry turned off by external request.
 Stoichiometry    C9H7NO2
 Framework group  C1[X(C9H7NO2)]
 Deg. of freedom    51
 Full point group                 C1      NOp   1
 Rotational constants (GHZ):           1.7411543           0.8645514           0.5798519
 Leave Link  202 at Wed Feb 28 19:50:24 2024, MaxMem=  2147483648 cpu:               0.4 elap:               0.0
 (Enter /software/gaussian-16RevA.03-el7-x86_64/g16/l301.exe)
 Standard basis: def2SVPP (5D, 7F)
 Ernie: Thresh=  0.10000D-02 Tol=  0.10000D-05 Strict=F.
   182 basis functions,   328 primitive gaussians,   194 cartesian basis functions
    42 alpha electrons       42 beta electrons
       nuclear repulsion energy       656.4294925001 Hartrees.
 IExCor= 4639 DFT=T Ex+Corr=wB97XD ExCW=0 ScaHFX=  1.000000
 ScaDFX=  1.000000  1.000000  1.000000  1.000000 ScalE2=  1.000000  1.000000
 IRadAn=      5 IRanWt=     -1 IRanGd=            0 ICorTp=0 IEmpDi=121
 HFx  wShort=  0.000000 wLong=  0.200000 cFull=  0.222036 cShort=  0.000000 cLong=  0.777964
 DFx  wShort=  0.000000 wLong=  0.200000 cFull=  0.000000 cShort=  0.000000 cLong=  1.000000
 NAtoms=   19 NActive=   19 NUniq=   19 SFac= 1.00D+00 NAtFMM=   60 NAOKFM=F Big=F
 Integral buffers will be    131072 words long.
 Raffenetti 2 integral format.
 Two-electron integral symmetry is turned off.
 R6Disp:  Grimme-D2 Dispersion energy=       -0.0100151950 Hartrees.
 Nuclear repulsion after empirical dispersion term =      656.4194773051 Hartrees.
 Force inversion solution in PCM.
 ------------------------------------------------------------------------------
 Polarizable Continuum Model (PCM)
 =================================
 Model                : PCM.
 Atomic radii         : UFF (Universal Force Field).
 Polarization charges : Total charges.
 Charge compensation  : None.
 Solution method      : Matrix inversion.
 Cavity type          : Scaled VdW (van der Waals Surface) (Alpha=1.100).
 Cavity algorithm     : GePol (No added spheres)
                        Default sphere list used, NSphG=   19.
                        Lebedev-Laikov grids with approx.  5.0 points / Ang**2.
                        Smoothing algorithm: York/Karplus (Gamma=1.0000).
                        Polarization charges: spherical gaussians, with
                                              point-specific exponents (IZeta= 3).
                        Self-potential: point-specific (ISelfS= 7).
                        Self-field    : sphere-specific E.n sum rule (ISelfD= 2).
 1st derivatives      : Analytical E(r).r(x)/FMM algorithm (CHGder, D1EAlg=3).
                        Cavity 1st derivative terms included.
 Solvent              : n,n-DiMethylFormamide, Eps=  37.219000 Eps(inf)=   2.046330
 ------------------------------------------------------------------------------
 Spheres list:
 ISph  on   Nord     Re0    Alpha      Xe            Ye            Ze
    1   C      1    1.9255  1.100     -3.188124      0.255544      0.217885
    2   N      2    1.8300  1.100     -1.750740      0.147408      0.122163
    3   C      3    1.9255  1.100     -1.093622     -1.024891     -0.245850
    4   O      4    1.7500  1.100     -1.638675     -2.065333     -0.521394
    5   C      5    1.9255  1.100      0.365285     -0.702242     -0.218930
    6   C      6    1.9255  1.100      1.466686     -1.495317     -0.497810
    7   C      7    1.9255  1.100      2.730879     -0.902036     -0.384100
    8   C      8    1.9255  1.100      2.868867      0.437281     -0.003880
    9   C      9    1.9255  1.100      1.747283      1.229146      0.275559
   10   C     10    1.9255  1.100      0.502708      0.631216      0.159515
   11   C     11    1.9255  1.100     -0.864139      1.192881      0.383593
   12   O     12    1.7500  1.100     -1.177472      2.308115      0.719623
   13   H     13    1.4430  1.100     -3.656628      0.047012     -0.757098
   14   H     14    1.4430  1.100     -3.579496     -0.453535      0.964588
   15   H     15    1.4430  1.100     -3.428636      1.282424      0.527127
   16   H     16    1.4430  1.100      1.352913     -2.540841     -0.794280
   17   H     17    1.4430  1.100      3.625267     -1.494041     -0.595689
   18   H     18    1.4430  1.100      3.868956      0.871524      0.076033
   19   H     19    1.4430  1.100      1.848686      2.275682      0.572946
 ------------------------------------------------------------------------------
 GePol: Number of generator spheres                  =      19
 GePol: Total number of spheres                      =      19
 GePol: Number of exposed spheres                    =      19 (100.00%)
 GePol: Number of points                             =    1661
 GePol: Average weight of points                     =       0.13
 GePol: Minimum weight of points                     =   0.54D-09
 GePol: Maximum weight of points                     =    0.20577
 GePol: Number of points with low weight             =      98
 GePol: Fraction of low-weight points (<1% of avg)   =       5.90%
 GePol: Cavity surface area                          =    216.086 Ang**2
 GePol: Cavity volume                                =    219.191 Ang**3
 Leave Link  301 at Wed Feb 28 19:50:24 2024, MaxMem=  2147483648 cpu:               2.7 elap:               0.2
 (Enter /software/gaussian-16RevA.03-el7-x86_64/g16/l302.exe)
 NPDir=0 NMtPBC=     1 NCelOv=     1 NCel=       1 NClECP=     1 NCelD=      1
         NCelK=      1 NCelE2=     1 NClLst=     1 CellRange=     0.0.
 One-electron integrals computed using PRISM.
   1 Symmetry operations used in ECPInt.
 ECPInt:  NShTT=    3741 NPrTT=   15055 LenC2=    3665 LenP2D=   11026.
 LDataN:  DoStor=T MaxTD1= 4 Len=   56
 NBasis=   182 RedAO= T EigKep=  2.79D-04  NBF=   182
 NBsUse=   182 1.00D-06 EigRej= -1.00D+00 NBFU=   182
 Precomputing XC quadrature grid using
 IXCGrd= 4 IRadAn=           5 IRanWt=          -1 IRanGd=           0 AccXCQ= 0.00D+00.
 Generated NRdTot=       0 NPtTot=           0 NUsed=           0 NTot=          32
 NSgBfM=   193   193   193   193   193 MxSgAt=    19 MxSgA2=    19.
 Leave Link  302 at Wed Feb 28 19:50:24 2024, MaxMem=  2147483648 cpu:               5.1 elap:               0.2
 (Enter /software/gaussian-16RevA.03-el7-x86_64/g16/l303.exe)
 DipDrv:  MaxL=1.
 Leave Link  303 at Wed Feb 28 19:50:24 2024, MaxMem=  2147483648 cpu:               1.7 elap:               0.1
 (Enter /software/gaussian-16RevA.03-el7-x86_64/g16/l401.exe)
 Lowest energy guess from the checkpoint file:  "NMPHTH-cavity-in-DMF-wB97XD.chk"
 B after Tr=     0.000044    0.000048    0.000038
         Rot=    1.000000    0.000541   -0.000048   -0.000036 Ang=   0.06 deg.
 Guess basis will be translated and rotated to current coordinates.
 B after Tr=     0.000063    0.000158   -0.001641
         Rot=    0.999973   -0.007305    0.000758    0.000516 Ang=  -0.84 deg.
 Guess basis will be translated and rotated to current coordinates.
 CkInt1:  FT= 6.35D-02
 Max alpha theta=  3.671 degrees.
 JPrj=2 DoOrth=T DoCkMO=T.
 Leave Link  401 at Wed Feb 28 19:50:24 2024, MaxMem=  2147483648 cpu:               5.3 elap:               0.2
 (Enter /software/gaussian-16RevA.03-el7-x86_64/g16/l502.exe)
 Two-electron integral symmetry not used.
 Closed shell SCF:
 Using DIIS extrapolation, IDIIS=  1040.
 NGot=  2147483648 LenX=  2147401213 LenY=  2147363136
 Requested convergence on RMS density matrix=1.00D-08 within  32 cycles.
 Requested convergence on MAX density matrix=1.00D-06.
 Requested convergence on             energy=1.00D-06.
 No special actions if energy rises.
 Fock matrices will be formed incrementally for  20 cycles.

 Cycle   1  Pass 1  IDiag  1:
 FoFJK:  IHMeth= 1 ICntrl=       0 DoSepK=T KAlg= 0 I1Cent=           0 FoldK=F
 IRaf=         1 NMat=       1 IRICut=       1 DoRegI=T DoRafI=F ISym2E= 0 IDoP0=0 IntGTp=1.
 FoFCou: FMM=F IPFlag=           0 FMFlag=      100000 FMFlg1=           0
         NFxFlg=           0 DoJE=T BraDBF=F KetDBF=F FulRan=T
         wScrn=  0.000000 ICntrl=       500 IOpCl=  0 I1Cent=           0 NGrid=           0
         NMat0=    1 NMatS0=      1 NMatT0=    0 NMatD0=    1 NMtDS0=    0 NMtDT0=    0
 Symmetry not used in FoFCou.
 Inv3:  Mode=1 IEnd=     8276763.
 Iteration    1 A*A^-1 deviation from unit magnitude is 2.66D-15 for    228.
 Iteration    1 A*A^-1 deviation from orthogonality  is 1.75D-15 for   1144    772.
 Iteration    1 A^-1*A deviation from unit magnitude is 2.89D-15 for    228.
 Iteration    1 A^-1*A deviation from orthogonality  is 1.47D-15 for   1118    782.
 E= -551.822279839794    
 DIIS: error= 1.31D-04 at cycle   1 NSaved=   1.
 NSaved= 1 IEnMin= 1 EnMin= -551.822279839794     IErMin= 1 ErrMin= 1.31D-04
 ErrMax= 1.31D-04  0.00D+00 EMaxC= 1.00D-01 BMatC= 6.17D-07 BMatP= 6.17D-07
 IDIUse=3 WtCom= 9.99D-01 WtEn= 1.31D-03
 Coeff-Com:  0.100D+01
 Coeff-En:   0.100D+01
 Coeff:      0.100D+01
 Gap=    10.956 Goal=   None    Shift=    0.000
 RMSDP=1.04D-05 MaxDP=1.93D-04              OVMax= 2.50D-04

 Cycle   2  Pass 1  IDiag  1:
 RMSU=  1.04D-05    CP:  1.00D+00
 E= -551.822280600291     Delta-E=       -0.000000760497 Rises=F Damp=F
 DIIS: error= 1.51D-05 at cycle   2 NSaved=   2.
 NSaved= 2 IEnMin= 2 EnMin= -551.822280600291     IErMin= 2 ErrMin= 1.51D-05
 ErrMax= 1.51D-05  0.00D+00 EMaxC= 1.00D-01 BMatC= 3.60D-08 BMatP= 6.17D-07
 IDIUse=1 WtCom= 1.00D+00 WtEn= 0.00D+00
 Coeff-Com: -0.526D-01 0.105D+01
 Coeff:     -0.526D-01 0.105D+01
 Gap=     0.327 Goal=   None    Shift=    0.000
 RMSDP=2.40D-06 MaxDP=5.05D-05 DE=-7.60D-07 OVMax= 7.31D-05

 Cycle   3  Pass 1  IDiag  1:
 RMSU=  2.13D-06    CP:  1.00D+00  1.10D+00
 E= -551.822280605429     Delta-E=       -0.000000005138 Rises=F Damp=F
 DIIS: error= 1.62D-05 at cycle   3 NSaved=   3.
 NSaved= 3 IEnMin= 3 EnMin= -551.822280605429     IErMin= 2 ErrMin= 1.51D-05
 ErrMax= 1.62D-05  0.00D+00 EMaxC= 1.00D-01 BMatC= 5.21D-08 BMatP= 3.60D-08
 IDIUse=1 WtCom= 1.00D+00 WtEn= 0.00D+00
 Coeff-Com: -0.851D-01 0.618D+00 0.467D+00
 Coeff:     -0.851D-01 0.618D+00 0.467D+00
 Gap=     0.327 Goal=   None    Shift=    0.000
 RMSDP=1.19D-06 MaxDP=3.63D-05 DE=-5.14D-09 OVMax= 5.61D-05

 Cycle   4  Pass 1  IDiag  1:
 RMSU=  7.54D-07    CP:  1.00D+00  1.13D+00  5.97D-01
 E= -551.822280646827     Delta-E=       -0.000000041398 Rises=F Damp=F
 DIIS: error= 2.49D-06 at cycle   4 NSaved=   4.
 NSaved= 4 IEnMin= 4 EnMin= -551.822280646827     IErMin= 4 ErrMin= 2.49D-06
 ErrMax= 2.49D-06  0.00D+00 EMaxC= 1.00D-01 BMatC= 7.57D-10 BMatP= 3.60D-08
 IDIUse=1 WtCom= 1.00D+00 WtEn= 0.00D+00
 Coeff-Com: -0.195D-01 0.103D+00 0.135D+00 0.781D+00
 Coeff:     -0.195D-01 0.103D+00 0.135D+00 0.781D+00
 Gap=     0.327 Goal=   None    Shift=    0.000
 RMSDP=2.28D-07 MaxDP=5.06D-06 DE=-4.14D-08 OVMax= 7.42D-06

 Cycle   5  Pass 1  IDiag  1:
 RMSU=  2.06D-07    CP:  1.00D+00  1.13D+00  6.39D-01  1.04D+00
 E= -551.822280647553     Delta-E=       -0.000000000726 Rises=F Damp=F
 DIIS: error= 5.99D-07 at cycle   5 NSaved=   5.
 NSaved= 5 IEnMin= 5 EnMin= -551.822280647553     IErMin= 5 ErrMin= 5.99D-07
 ErrMax= 5.99D-07  0.00D+00 EMaxC= 1.00D-01 BMatC= 1.05D-10 BMatP= 7.57D-10
 IDIUse=1 WtCom= 1.00D+00 WtEn= 0.00D+00
 Coeff-Com:  0.478D-02-0.516D-01-0.140D-01 0.253D+00 0.807D+00
 Coeff:      0.478D-02-0.516D-01-0.140D-01 0.253D+00 0.807D+00
 Gap=     0.327 Goal=   None    Shift=    0.000
 RMSDP=1.06D-07 MaxDP=2.56D-06 DE=-7.26D-10 OVMax= 3.20D-06

 Cycle   6  Pass 1  IDiag  1:
 RMSU=  5.41D-08    CP:  1.00D+00  1.14D+00  6.65D-01  1.14D+00  9.52D-01
 E= -551.822280647679     Delta-E=       -0.000000000127 Rises=F Damp=F
 DIIS: error= 1.77D-07 at cycle   6 NSaved=   6.
 NSaved= 6 IEnMin= 6 EnMin= -551.822280647679     IErMin= 6 ErrMin= 1.77D-07
 ErrMax= 1.77D-07  0.00D+00 EMaxC= 1.00D-01 BMatC= 8.10D-12 BMatP= 1.05D-10
 IDIUse=1 WtCom= 1.00D+00 WtEn= 0.00D+00
 Coeff-Com:  0.307D-02-0.259D-01-0.141D-01 0.347D-01 0.275D+00 0.727D+00
 Coeff:      0.307D-02-0.259D-01-0.141D-01 0.347D-01 0.275D+00 0.727D+00
 Gap=     0.327 Goal=   None    Shift=    0.000
 RMSDP=2.83D-08 MaxDP=5.88D-07 DE=-1.27D-10 OVMax= 1.24D-06

 Cycle   7  Pass 1  IDiag  1:
 RMSU=  1.97D-08    CP:  1.00D+00  1.13D+00  6.70D-01  1.15D+00  1.01D+00
                    CP:  1.00D+00
 E= -551.822280647693     Delta-E=       -0.000000000014 Rises=F Damp=F
 DIIS: error= 7.17D-08 at cycle   7 NSaved=   7.
 NSaved= 7 IEnMin= 7 EnMin= -551.822280647693     IErMin= 7 ErrMin= 7.17D-08
 ErrMax= 7.17D-08  0.00D+00 EMaxC= 1.00D-01 BMatC= 1.26D-12 BMatP= 8.10D-12
 IDIUse=1 WtCom= 1.00D+00 WtEn= 0.00D+00
 Coeff-Com:  0.698D-03-0.464D-02-0.392D-02-0.113D-01 0.171D-01 0.295D+00
 Coeff-Com:  0.707D+00
 Coeff:      0.698D-03-0.464D-02-0.392D-02-0.113D-01 0.171D-01 0.295D+00
 Coeff:      0.707D+00
 Gap=     0.327 Goal=   None    Shift=    0.000
 RMSDP=9.67D-09 MaxDP=2.06D-07 DE=-1.36D-11 OVMax= 4.22D-07

 Error on total polarization charges =  0.00723
 SCF Done:  E(RwB97XD) =  -551.822280648     A.U. after    7 cycles
            NFock=  7  Conv=0.97D-08     -V/T= 2.0095
 KE= 5.466499957478D+02 PE=-2.597191519959D+03 EE= 8.422997662587D+02
 Leave Link  502 at Wed Feb 28 19:50:32 2024, MaxMem=  2147483648 cpu:             192.8 elap:               7.2
 (Enter /software/gaussian-16RevA.03-el7-x86_64/g16/l508.exe)
 QCSCF skips out because SCF is already converged.
 Leave Link  508 at Wed Feb 28 19:50:32 2024, MaxMem=  2147483648 cpu:               0.5 elap:               0.0
 (Enter /software/gaussian-16RevA.03-el7-x86_64/g16/l801.exe)
 DoSCS=F DFT=T ScalE2(SS,OS)=  1.000000  1.000000
 Range of M.O.s used for correlation:     1   182
 NBasis=   182 NAE=    42 NBE=    42 NFC=     0 NFV=     0
 NROrb=    182 NOA=    42 NOB=    42 NVA=   140 NVB=   140

 **** Warning!!: The largest alpha MO coefficient is  0.16782284D+02

 Leave Link  801 at Wed Feb 28 19:50:32 2024, MaxMem=  2147483648 cpu:               1.7 elap:               0.1
 (Enter /software/gaussian-16RevA.03-el7-x86_64/g16/l1101.exe)
 Leave Link 1101 at Wed Feb 28 19:50:32 2024, MaxMem=  2147483648 cpu:               1.0 elap:               0.1
 (Enter /software/gaussian-16RevA.03-el7-x86_64/g16/l1102.exe)
 Symmetrizing basis deriv contribution to polar:
 IMax=3 JMax=2 DiffMx= 0.00D+00
 Leave Link 1102 at Wed Feb 28 19:50:32 2024, MaxMem=  2147483648 cpu:               0.8 elap:               0.0
 (Enter /software/gaussian-16RevA.03-el7-x86_64/g16/l1110.exe)
 Leave Link 1110 at Wed Feb 28 19:50:32 2024, MaxMem=  2147483648 cpu:               1.2 elap:               0.1
 (Enter /software/gaussian-16RevA.03-el7-x86_64/g16/l1002.exe)
 Minotr:  Closed shell wavefunction.
 Leave Link 1002 at Wed Feb 28 19:50:32 2024, MaxMem=  2147483648 cpu:               0.4 elap:               0.0
 (Enter /software/gaussian-16RevA.03-el7-x86_64/g16/l701.exe)
 ... and contract with generalized density number  0.
 Compute integral first derivatives.
 R6Disp: Adding Grimme-D2 dispersion energy 1st derivatives to the gradient.
   1 Symmetry operations used in ECPInt.
 ECPInt:  NShTT=    3741 NPrTT=   15055 LenC2=    3665 LenP2D=   11026.
 LDataN:  DoStor=T MaxTD1= 5 Len=  102
 D1PCM: PCM CHGder 1st derivatives, ID1Alg=3 FixD1E=F DoIter=F DoCFld=F I1PDM=0.
 GePol: Maximum number of non-zero 1st derivatives   =     213
 Leave Link  701 at Wed Feb 28 19:50:33 2024, MaxMem=  2147483648 cpu:              23.0 elap:               0.9
 (Enter /software/gaussian-16RevA.03-el7-x86_64/g16/l702.exe)
 L702 exits ... SP integral derivatives will be done elsewhere.
 Leave Link  702 at Wed Feb 28 19:50:33 2024, MaxMem=  2147483648 cpu:               0.5 elap:               0.0
 (Enter /software/gaussian-16RevA.03-el7-x86_64/g16/l703.exe)
 Integral derivatives from FoFJK, PRISM(SPDF).
 Compute integral first derivatives, UseDBF=F ICtDFT=           0.
 Calling FoFJK, ICntrl=      2127 FMM=F ISym2X=0 I1Cent= 0 IOpClX= 0 NMat=1 NMatS=1 NMatT=0.
 FoFJK:  IHMeth= 1 ICntrl=    2127 DoSepK=T KAlg= 0 I1Cent=           0 FoldK=F
 IRaf=         1 NMat=       1 IRICut=       1 DoRegI=T DoRafI=F ISym2E= 0 IDoP0=0 IntGTp=1.
 FoFCou: FMM=F IPFlag=           0 FMFlag=      100000 FMFlg1=         800
         NFxFlg=           0 DoJE=F BraDBF=F KetDBF=F FulRan=T
         wScrn=  0.000000 ICntrl=      2527 IOpCl=  0 I1Cent=           0 NGrid=           0
         NMat0=    1 NMatS0=      1 NMatT0=    0 NMatD0=    1 NMtDS0=    0 NMtDT0=    0
 Symmetry not used in FoFCou.
 Leave Link  703 at Wed Feb 28 19:50:35 2024, MaxMem=  2147483648 cpu:              54.5 elap:               2.0
 (Enter /software/gaussian-16RevA.03-el7-x86_64/g16/l716.exe)
 Dipole        = 1.15830589D+00-8.40354566D-02-7.70979134D-02
 Polarizability= 0.00000000D+00 0.00000000D+00 0.00000000D+00
                 0.00000000D+00 0.00000000D+00 0.00000000D+00
 -------------------------------------------------------------------
 Center     Atomic                   Forces (Hartrees/Bohr)
 Number     Number              X              Y              Z
 -------------------------------------------------------------------
      1        6          -0.000014658   -0.000042587   -0.000004287
      2        7          -0.000010624    0.000011049    0.000008334
      3        6          -0.000016237    0.000006328    0.000005070
      4        8          -0.000004195    0.000014225    0.000003089
      5        6           0.000015174    0.000001747    0.000000303
      6        6           0.000000152   -0.000000397    0.000000403
      7        6           0.000001238    0.000003246    0.000000573
      8        6           0.000000171   -0.000000597   -0.000000733
      9        6          -0.000000815    0.000003222    0.000000332
     10        6           0.000010569   -0.000000716   -0.000001052
     11        6          -0.000009711    0.000012258   -0.000001736
     12        8           0.000007973   -0.000003522    0.000001491
     13        1          -0.000009112   -0.000004660   -0.000000767
     14        1          -0.000005433   -0.000002046   -0.000004026
     15        1           0.000036699   -0.000003292   -0.000007032
     16        1           0.000001376    0.000002545    0.000001370
     17        1           0.000000175    0.000002343    0.000000445
     18        1          -0.000001292    0.000001734   -0.000000499
     19        1          -0.000001449   -0.000000882   -0.000001279
 -------------------------------------------------------------------
 Cartesian Forces:  Max     0.000042587 RMS     0.000009547
 Leave Link  716 at Wed Feb 28 19:50:35 2024, MaxMem=  2147483648 cpu:               0.5 elap:               0.0
 (Enter /software/gaussian-16RevA.03-el7-x86_64/g16/l103.exe)

 GradGradGradGradGradGradGradGradGradGradGradGradGradGradGradGradGradGrad
 Berny optimization.
 Using GEDIIS/GDIIS optimizer.
 FormGI is forming the generalized inverse of G from B-inverse, IUseBI=4.
 Internal  Forces:  Max     0.000058910 RMS     0.000009049
 Step   5 in ReCalcFC=50 IGetFC= 0 update Hessian.
 Search for a local minimum.
 Step number   5 out of a maximum of  114
 All quantities printed in internal units (Hartrees-Bohrs-Radians)
 RMS Force = .90486D-05 SwitMx=.10000D-02 MixMth= 2
 Mixed Optimization -- En-DIIS/RFO-DIIS
 Swapping is turned off.
 Update second derivatives using D2CorX and points    1    2    3    4    5
 DE= -5.59D-05 DEPred=-7.36D-06 R= 7.59D+00
 TightC=F SS=  1.41D+00  RLast= 5.58D-01 DXNew= 8.4853D-01 1.6742D+00
 Trust test= 7.59D+00 RLast= 5.58D-01 DXMaxT set to 8.49D-01
 ITU=  1  0  1  1  0
     Eigenvalues ---    0.00027   0.00617   0.01007   0.01482   0.01593
     Eigenvalues ---    0.01799   0.01860   0.02151   0.02431   0.02713
     Eigenvalues ---    0.03030   0.03199   0.04333   0.04946   0.06048
     Eigenvalues ---    0.06247   0.10727   0.10760   0.12094   0.12460
     Eigenvalues ---    0.13468   0.14820   0.16830   0.18690   0.19195
     Eigenvalues ---    0.19462   0.19946   0.21511   0.23123   0.24409
     Eigenvalues ---    0.24426   0.28378   0.30336   0.34912   0.35541
     Eigenvalues ---    0.35891   0.36434   0.36848   0.37498   0.37604
     Eigenvalues ---    0.38139   0.38166   0.39947   0.41272   0.42974
     Eigenvalues ---    0.43747   0.48819   0.51078   0.53853   0.85908
     Eigenvalues ---    0.88103
 En-DIIS/RFO-DIIS/Sim-DIIS IScMMF=       -3 using points:     5    4
 RFO step:  Lambda=-7.09163593D-08.
 NNeg= 0 NGDIIS= 2 SimSw=  2.50D-01 Rises=F DC= -5.59D-05 SmlDif=  1.00D-05
 NRisDI= 0 DoIntr=F SqrtH=F CThrHd= 10.0 CDAdj=  3.0
 RMS Error=  0.1174658485D-02 NUsed= 2 OKEnD=T EnDIS=F
 InvSVX:  RCond= 6.72D-02 Info=           0 Equed=N FErr=  9.30D-16 BErr=  9.77D-17
 DidBck=F Rises=F RFO-DIIS coefs:    1.02092   -0.02092
 Iteration  1 RMS(Cart)=  0.00155660 RMS(Int)=  0.00000316
 Iteration  2 RMS(Cart)=  0.00000325 RMS(Int)=  0.00000012
 Iteration  3 RMS(Cart)=  0.00000000 RMS(Int)=  0.00000012
 ITry= 1 IFail=0 DXMaxC= 8.44D-03 DCOld= 1.00D+10 DXMaxT= 8.49D-01 DXLimC= 3.00D+00 Rises=F
 Variable       Old X    -DE/DX   Delta X   Delta X   Delta X     New X
                                 (Linear)    (Quad)   (Total)
    R1        2.72994  -0.00001  -0.00000  -0.00002  -0.00002   2.72992
    R2        2.08176   0.00000  -0.00003   0.00001  -0.00003   2.08174
    R3        2.08173  -0.00000   0.00003  -0.00000   0.00003   2.08176
    R4        2.07694  -0.00001  -0.00000  -0.00002  -0.00002   2.07692
    R5        2.63312  -0.00003  -0.00001  -0.00004  -0.00005   2.63307
    R6        2.63711   0.00001  -0.00001   0.00005   0.00004   2.63715
    R7        2.27986  -0.00001  -0.00000  -0.00001  -0.00001   2.27985
    R8        2.82401   0.00001  -0.00000   0.00005   0.00005   2.82406
    R9        2.61836  -0.00000  -0.00000  -0.00000  -0.00001   2.61836
   R10        2.63223  -0.00000  -0.00000   0.00000  -0.00000   2.63223
   R11        2.64770  -0.00000  -0.00000  -0.00000  -0.00000   2.64770
   R12        2.06487  -0.00000  -0.00000  -0.00000  -0.00001   2.06487
   R13        2.64385  -0.00000   0.00000  -0.00001  -0.00001   2.64384
   R14        2.06592  -0.00000  -0.00000  -0.00000  -0.00000   2.06592
   R15        2.64770   0.00000  -0.00000   0.00000   0.00000   2.64770
   R16        2.06589  -0.00000  -0.00000  -0.00000  -0.00000   2.06588
   R17        2.61845  -0.00000  -0.00000   0.00000  -0.00000   2.61845
   R18        2.06488  -0.00000  -0.00000  -0.00000  -0.00001   2.06487
   R19        2.82446   0.00001  -0.00001   0.00006   0.00005   2.82452
   R20        2.27933  -0.00000  -0.00000  -0.00001  -0.00001   2.27931
    A1        1.92873   0.00002  -0.00020   0.00011  -0.00010   1.92864
    A2        1.92861   0.00002   0.00018   0.00012   0.00030   1.92891
    A3        1.88212  -0.00006   0.00002  -0.00039  -0.00036   1.88175
    A4        1.90389  -0.00001  -0.00002   0.00001  -0.00000   1.90389
    A5        1.91009   0.00001   0.00006   0.00006   0.00012   1.91021
    A6        1.91021   0.00002  -0.00005   0.00009   0.00005   1.91026
    A7        2.15282  -0.00002   0.00001  -0.00011  -0.00010   2.15272
    A8        2.16960   0.00002  -0.00001   0.00011   0.00010   2.16970
    A9        1.96077  -0.00000  -0.00000   0.00000   0.00000   1.96077
   A10        2.18074  -0.00002   0.00002  -0.00010  -0.00008   2.18066
   A11        1.84834   0.00001   0.00000   0.00003   0.00003   1.84837
   A12        2.25410   0.00001  -0.00002   0.00007   0.00005   2.25415
   A13        2.27683   0.00000   0.00000   0.00002   0.00002   2.27684
   A14        1.88378  -0.00000  -0.00000  -0.00002  -0.00002   1.88376
   A15        2.12258   0.00000   0.00000   0.00001   0.00001   2.12259
   A16        2.04713  -0.00000  -0.00000  -0.00000  -0.00000   2.04713
   A17        2.11708  -0.00000  -0.00000  -0.00000  -0.00000   2.11708
   A18        2.11897   0.00000   0.00000   0.00000   0.00000   2.11897
   A19        2.11344  -0.00000   0.00000  -0.00000  -0.00000   2.11344
   A20        2.08651  -0.00000   0.00000  -0.00000   0.00000   2.08651
   A21        2.08323   0.00000  -0.00000   0.00000   0.00000   2.08323
   A22        2.11331   0.00000  -0.00000   0.00000   0.00000   2.11331
   A23        2.08328  -0.00000  -0.00000  -0.00000  -0.00000   2.08328
   A24        2.08660   0.00000   0.00000  -0.00000  -0.00000   2.08660
   A25        2.04702  -0.00000  -0.00000  -0.00000  -0.00000   2.04702
   A26        2.11916   0.00000   0.00000  -0.00000   0.00000   2.11917
   A27        2.11700   0.00000  -0.00000   0.00000   0.00000   2.11700
   A28        2.12289  -0.00000   0.00000  -0.00001  -0.00000   2.12289
   A29        1.88626  -0.00000  -0.00000   0.00001   0.00001   1.88627
   A30        2.27404   0.00000   0.00000  -0.00001  -0.00001   2.27403
   A31        1.84564  -0.00000   0.00001  -0.00002  -0.00002   1.84562
   A32        2.18933   0.00001   0.00001   0.00004   0.00005   2.18938
   A33        2.24822  -0.00001  -0.00001  -0.00002  -0.00003   2.24819
    D1       -1.05628  -0.00001   0.00462  -0.00001   0.00461  -1.05166
    D2        2.08474  -0.00001   0.00490  -0.00016   0.00474   2.08948
    D3        1.05268   0.00001   0.00459   0.00015   0.00474   1.05743
    D4       -2.08949   0.00001   0.00486   0.00001   0.00487  -2.08462
    D5        3.13984   0.00000   0.00465   0.00010   0.00475  -3.13860
    D6       -0.00233   0.00000   0.00493  -0.00005   0.00488   0.00254
    D7       -0.00044   0.00000   0.00024  -0.00010   0.00014  -0.00030
    D8        3.14106  -0.00000   0.00022  -0.00013   0.00008   3.14115
    D9       -3.14152   0.00000  -0.00001   0.00004   0.00002  -3.14149
   D10       -0.00001  -0.00000  -0.00003   0.00000  -0.00003  -0.00004
   D11       -3.14103   0.00000  -0.00022   0.00014  -0.00007  -3.14111
   D12        0.00059   0.00000  -0.00026   0.00018  -0.00008   0.00051
   D13        0.00004   0.00000   0.00003   0.00001   0.00004   0.00008
   D14       -3.14153   0.00000  -0.00001   0.00004   0.00004  -3.14149
   D15       -3.14148   0.00000   0.00005   0.00001   0.00005  -3.14143
   D16       -0.00002   0.00000   0.00002  -0.00001   0.00001  -0.00002
   D17        0.00002  -0.00000   0.00003  -0.00003  -0.00000   0.00001
   D18        3.14148  -0.00000  -0.00001  -0.00005  -0.00005   3.14142
   D19        3.14147  -0.00000  -0.00003  -0.00002  -0.00005   3.14142
   D20       -0.00013  -0.00000  -0.00002  -0.00002  -0.00004  -0.00017
   D21        0.00003   0.00000   0.00001  -0.00000   0.00000   0.00003
   D22       -3.14158   0.00000   0.00001  -0.00000   0.00001  -3.14156
   D23       -3.14159  -0.00000   0.00002   0.00001   0.00004  -3.14155
   D24        0.00004  -0.00000   0.00000   0.00001   0.00002   0.00006
   D25       -0.00011  -0.00000  -0.00000  -0.00000  -0.00000  -0.00012
   D26        3.14152  -0.00000  -0.00002  -0.00000  -0.00002   3.14149
   D27        0.00006   0.00000  -0.00001   0.00000  -0.00000   0.00006
   D28       -3.14146   0.00000  -0.00000   0.00001   0.00000  -3.14146
   D29       -3.14152   0.00000  -0.00001   0.00000  -0.00001  -3.14153
   D30        0.00014   0.00000  -0.00001   0.00000  -0.00001   0.00014
   D31       -0.00007  -0.00000  -0.00000   0.00000  -0.00000  -0.00007
   D32        3.14151   0.00000   0.00000   0.00000   0.00000   3.14151
   D33        3.14145  -0.00000  -0.00000  -0.00000  -0.00001   3.14145
   D34       -0.00016   0.00000  -0.00000   0.00000   0.00000  -0.00016
   D35       -0.00001  -0.00000   0.00001  -0.00001   0.00000  -0.00001
   D36       -3.14158   0.00000   0.00001   0.00000   0.00001  -3.14158
   D37       -3.14159  -0.00000   0.00000  -0.00001  -0.00000  -3.14159
   D38        0.00003   0.00000   0.00001  -0.00000   0.00000   0.00003
   D39        0.00010   0.00000  -0.00000   0.00001   0.00000   0.00010
   D40       -3.14154   0.00000   0.00002   0.00000   0.00003  -3.14151
   D41       -3.14151   0.00000  -0.00001  -0.00000  -0.00001  -3.14152
   D42        0.00003   0.00000   0.00002  -0.00000   0.00002   0.00005
   D43       -0.00005  -0.00000  -0.00002  -0.00001  -0.00004  -0.00009
   D44        3.14151  -0.00000   0.00002  -0.00005  -0.00003   3.14148
   D45        3.14158  -0.00000  -0.00005  -0.00001  -0.00006   3.14152
   D46       -0.00004  -0.00000  -0.00000  -0.00005  -0.00005  -0.00009
         Item               Value     Threshold  Converged?
 Maximum Force            0.000059     0.000450     YES
 RMS     Force            0.000009     0.000300     YES
 Maximum Displacement     0.008436     0.001800     NO 
 RMS     Displacement     0.001557     0.001200     NO 
 Predicted change in Energy=-3.546002D-08
 Lowest energy point so far.  Saving SCF results.
 Step   5 in ReCalcFC=50 IGetFC= 0 compute gradient.
 GradGradGradGradGradGradGradGradGradGradGradGradGradGradGradGradGradGrad

 Leave Link  103 at Wed Feb 28 19:50:35 2024, MaxMem=  2147483648 cpu:               1.2 elap:               0.1
 (Enter /software/gaussian-16RevA.03-el7-x86_64/g16/l202.exe)
                          Input orientation:                          
 ---------------------------------------------------------------------
 Center     Atomic      Atomic             Coordinates (Angstroms)
 Number     Number       Type             X           Y           Z
 ---------------------------------------------------------------------
      1          6           0       -3.188144    0.255413    0.217904
      2          7           0       -1.750761    0.147439    0.122159
      3          6           0       -1.093670   -1.024717   -0.246264
      4          8           0       -1.638824   -2.064976   -0.522272
      5          6           0        0.365279   -0.702157   -0.219155
      6          6           0        1.466656   -1.495154   -0.498338
      7          6           0        2.730863   -0.901952   -0.384379
      8          6           0        2.868883    0.437208   -0.003628
      9          6           0        1.747319    1.228997    0.276111
     10          6           0        0.502730    0.631147    0.159816
     11          6           0       -0.864128    1.192790    0.384079
     12          8           0       -1.177386    2.307900    0.720564
     13          1           0       -3.656789    0.042548   -0.756058
     14          1           0       -3.579281   -0.450459    0.967783
     15          1           0       -3.428571    1.283618    0.522739
     16          1           0        1.352854   -2.540551   -0.795231
     17          1           0        3.625237   -1.493896   -0.596196
     18          1           0        3.868982    0.871389    0.076464
     19          1           0        1.848750    2.275411    0.573903
 ---------------------------------------------------------------------
                    Distance matrix (angstroms):
                    1          2          3          4          5
     1  C    0.000000
     2  N    1.444609   0.000000
     3  C    2.498201   1.393361   0.000000
     4  O    2.886600   2.307076   1.206446   0.000000
     5  C    3.706046   2.305631   1.494427   2.442454   0.000000
     6  C    5.024406   3.665365   2.615363   3.157416   1.385575
     7  C    6.061096   4.630633   3.828995   4.523915   2.379749
     8  C    6.063802   4.630431   4.230593   5.181634   2.759101
     9  C    5.030909   3.664700   3.663785   4.790995   2.425836
    10  C    3.710404   2.305127   2.335654   3.510068   1.392915
    11  C    2.511442   1.395521   2.316756   3.469101   2.337981
    12  O    2.916936   2.313965   3.471037   4.569420   3.510460
    13  H    1.101609   2.101241   2.822858   2.927199   4.125516
    14  H    1.101619   2.101440   2.825234   2.931263   4.126952
    15  H    1.099060   2.065530   3.372171   3.938060   4.345918
    16  H    5.428123   4.207056   2.929948   3.041515   2.164915
    17  H    7.081313   5.666689   4.755067   5.295464   3.375846
    18  H    7.085369   5.666366   5.322339   6.270299   3.852191
    19  H    5.438513   4.205807   4.496816   5.674833   3.419874
                    6          7          8          9         10
     6  C    0.000000
     7  C    1.401105   0.000000
     8  C    2.438237   1.399060   0.000000
     9  C    2.845969   2.438145   1.401103   0.000000
    10  C    2.425588   2.758826   2.379707   1.385623   0.000000
    11  C    3.665550   4.231127   3.828392   2.613928   1.494669
    12  O    4.789561   5.176723   4.516219   3.148884   2.439001
    13  H    5.355431   6.467792   6.580753   5.628270   4.299637
    14  H    5.357461   6.469167   6.581065   5.627758   4.299477
    15  H    5.720788   6.598349   6.375844   5.182050   4.001569
    16  H    1.092681   2.180072   3.433952   3.938638   3.419721
    17  H    2.160798   1.093237   2.156935   3.420766   3.851936
    18  H    3.420832   2.156949   1.093219   2.160832   3.375843
    19  H    3.938637   3.433958   2.180185   1.092681   2.164911
                   11         12         13         14         15
    11  C    0.000000
    12  O    1.206160   0.000000
    13  H    3.228301   3.668742   0.000000
    14  H    3.226924   3.665892   1.794629   0.000000
    15  H    2.569795   2.481153   1.796569   1.796608   0.000000
    16  H    4.499290   5.675140   5.636529   5.639385   6.262853
    17  H    5.322933   6.265197   7.444066   7.445796   7.663080
    18  H    4.753972   5.286233   7.616909   7.616979   7.322798
    19  H    2.927082   3.029862   6.088139   6.086792   5.369952
                   16         17         18         19
    16  H    0.000000
    17  H    2.509746   0.000000
    18  H    4.328058   2.471125   0.000000
    19  H    5.031295   4.328131   2.509992   0.000000
 Symmetry turned off by external request.
 Stoichiometry    C9H7NO2
 Framework group  C1[X(C9H7NO2)]
 Deg. of freedom    51
 Full point group                 C1      NOp   1
 Rotational constants (GHZ):           1.7411680           0.8645430           0.5798497
 Leave Link  202 at Wed Feb 28 19:50:35 2024, MaxMem=  2147483648 cpu:               0.8 elap:               0.1
 (Enter /software/gaussian-16RevA.03-el7-x86_64/g16/l301.exe)
 Standard basis: def2SVPP (5D, 7F)
 Ernie: Thresh=  0.10000D-02 Tol=  0.10000D-05 Strict=F.
   182 basis functions,   328 primitive gaussians,   194 cartesian basis functions
    42 alpha electrons       42 beta electrons
       nuclear repulsion energy       656.4293356807 Hartrees.
 IExCor= 4639 DFT=T Ex+Corr=wB97XD ExCW=0 ScaHFX=  1.000000
 ScaDFX=  1.000000  1.000000  1.000000  1.000000 ScalE2=  1.000000  1.000000
 IRadAn=      5 IRanWt=     -1 IRanGd=            0 ICorTp=0 IEmpDi=121
 HFx  wShort=  0.000000 wLong=  0.200000 cFull=  0.222036 cShort=  0.000000 cLong=  0.777964
 DFx  wShort=  0.000000 wLong=  0.200000 cFull=  0.000000 cShort=  0.000000 cLong=  1.000000
 NAtoms=   19 NActive=   19 NUniq=   19 SFac= 1.00D+00 NAtFMM=   60 NAOKFM=F Big=F
 Integral buffers will be    131072 words long.
 Raffenetti 2 integral format.
 Two-electron integral symmetry is turned off.
 R6Disp:  Grimme-D2 Dispersion energy=       -0.0100151170 Hartrees.
 Nuclear repulsion after empirical dispersion term =      656.4193205637 Hartrees.
 Force inversion solution in PCM.
 ------------------------------------------------------------------------------
 Polarizable Continuum Model (PCM)
 =================================
 Model                : PCM.
 Atomic radii         : UFF (Universal Force Field).
 Polarization charges : Total charges.
 Charge compensation  : None.
 Solution method      : Matrix inversion.
 Cavity type          : Scaled VdW (van der Waals Surface) (Alpha=1.100).
 Cavity algorithm     : GePol (No added spheres)
                        Default sphere list used, NSphG=   19.
                        Lebedev-Laikov grids with approx.  5.0 points / Ang**2.
                        Smoothing algorithm: York/Karplus (Gamma=1.0000).
                        Polarization charges: spherical gaussians, with
                                              point-specific exponents (IZeta= 3).
                        Self-potential: point-specific (ISelfS= 7).
                        Self-field    : sphere-specific E.n sum rule (ISelfD= 2).
 1st derivatives      : Analytical E(r).r(x)/FMM algorithm (CHGder, D1EAlg=3).
                        Cavity 1st derivative terms included.
 Solvent              : n,n-DiMethylFormamide, Eps=  37.219000 Eps(inf)=   2.046330
 ------------------------------------------------------------------------------
 Spheres list:
 ISph  on   Nord     Re0    Alpha      Xe            Ye            Ze
    1   C      1    1.9255  1.100     -3.188144      0.255413      0.217904
    2   N      2    1.8300  1.100     -1.750761      0.147439      0.122159
    3   C      3    1.9255  1.100     -1.093670     -1.024717     -0.246264
    4   O      4    1.7500  1.100     -1.638824     -2.064976     -0.522272
    5   C      5    1.9255  1.100      0.365279     -0.702157     -0.219155
    6   C      6    1.9255  1.100      1.466656     -1.495154     -0.498338
    7   C      7    1.9255  1.100      2.730863     -0.901952     -0.384379
    8   C      8    1.9255  1.100      2.868883      0.437208     -0.003628
    9   C      9    1.9255  1.100      1.747319      1.228997      0.276111
   10   C     10    1.9255  1.100      0.502730      0.631147      0.159816
   11   C     11    1.9255  1.100     -0.864128      1.192790      0.384079
   12   O     12    1.7500  1.100     -1.177386      2.307900      0.720564
   13   H     13    1.4430  1.100     -3.656789      0.042548     -0.756058
   14   H     14    1.4430  1.100     -3.579281     -0.450459      0.967783
   15   H     15    1.4430  1.100     -3.428571      1.283618      0.522739
   16   H     16    1.4430  1.100      1.352854     -2.540551     -0.795231
   17   H     17    1.4430  1.100      3.625237     -1.493896     -0.596196
   18   H     18    1.4430  1.100      3.868982      0.871389      0.076464
   19   H     19    1.4430  1.100      1.848750      2.275411      0.573903
 ------------------------------------------------------------------------------
 GePol: Number of generator spheres                  =      19
 GePol: Total number of spheres                      =      19
 GePol: Number of exposed spheres                    =      19 (100.00%)
 GePol: Number of points                             =    1661
 GePol: Average weight of points                     =       0.13
 GePol: Minimum weight of points                     =   0.28D-09
 GePol: Maximum weight of points                     =    0.20577
 GePol: Number of points with low weight             =      98
 GePol: Fraction of low-weight points (<1% of avg)   =       5.90%
 GePol: Cavity surface area                          =    216.079 Ang**2
 GePol: Cavity volume                                =    219.191 Ang**3
 Leave Link  301 at Wed Feb 28 19:50:35 2024, MaxMem=  2147483648 cpu:               1.9 elap:               0.1
 (Enter /software/gaussian-16RevA.03-el7-x86_64/g16/l302.exe)
 NPDir=0 NMtPBC=     1 NCelOv=     1 NCel=       1 NClECP=     1 NCelD=      1
         NCelK=      1 NCelE2=     1 NClLst=     1 CellRange=     0.0.
 One-electron integrals computed using PRISM.
   1 Symmetry operations used in ECPInt.
 ECPInt:  NShTT=    3741 NPrTT=   15055 LenC2=    3665 LenP2D=   11026.
 LDataN:  DoStor=T MaxTD1= 4 Len=   56
 NBasis=   182 RedAO= T EigKep=  2.79D-04  NBF=   182
 NBsUse=   182 1.00D-06 EigRej= -1.00D+00 NBFU=   182
 Precomputing XC quadrature grid using
 IXCGrd= 4 IRadAn=           5 IRanWt=          -1 IRanGd=           0 AccXCQ= 0.00D+00.
 Generated NRdTot=       0 NPtTot=           0 NUsed=           0 NTot=          32
 NSgBfM=   193   193   193   193   193 MxSgAt=    19 MxSgA2=    19.
 Leave Link  302 at Wed Feb 28 19:50:35 2024, MaxMem=  2147483648 cpu:               5.3 elap:               0.2
 (Enter /software/gaussian-16RevA.03-el7-x86_64/g16/l303.exe)
 DipDrv:  MaxL=1.
 Leave Link  303 at Wed Feb 28 19:50:36 2024, MaxMem=  2147483648 cpu:               2.4 elap:               0.1
 (Enter /software/gaussian-16RevA.03-el7-x86_64/g16/l401.exe)
 Initial guess from the checkpoint file:  "NMPHTH-cavity-in-DMF-wB97XD.chk"
 B after Tr=    -0.000017    0.000025    0.000027
         Rot=    1.000000   -0.000154    0.000010    0.000013 Ang=  -0.02 deg.
 Guess basis will be translated and rotated to current coordinates.
 JPrj=2 DoOrth=T DoCkMO=T.
 Leave Link  401 at Wed Feb 28 19:50:36 2024, MaxMem=  2147483648 cpu:               4.6 elap:               0.2
 (Enter /software/gaussian-16RevA.03-el7-x86_64/g16/l502.exe)
 Two-electron integral symmetry not used.
 Closed shell SCF:
 Using DIIS extrapolation, IDIIS=  1040.
 NGot=  2147483648 LenX=  2147401213 LenY=  2147363136
 Requested convergence on RMS density matrix=1.00D-08 within  32 cycles.
 Requested convergence on MAX density matrix=1.00D-06.
 Requested convergence on             energy=1.00D-06.
 No special actions if energy rises.
 Fock matrices will be formed incrementally for  20 cycles.

 Cycle   1  Pass 1  IDiag  1:
 FoFJK:  IHMeth= 1 ICntrl=       0 DoSepK=T KAlg= 0 I1Cent=           0 FoldK=F
 IRaf=         1 NMat=       1 IRICut=       1 DoRegI=T DoRafI=F ISym2E= 0 IDoP0=0 IntGTp=1.
 FoFCou: FMM=F IPFlag=           0 FMFlag=      100000 FMFlg1=           0
         NFxFlg=           0 DoJE=T BraDBF=F KetDBF=F FulRan=T
         wScrn=  0.000000 ICntrl=       500 IOpCl=  0 I1Cent=           0 NGrid=           0
         NMat0=    1 NMatS0=      1 NMatT0=    0 NMatD0=    1 NMtDS0=    0 NMtDT0=    0
 Symmetry not used in FoFCou.
 Inv3:  Mode=1 IEnd=     8276763.
 Iteration    1 A*A^-1 deviation from unit magnitude is 3.22D-15 for    370.
 Iteration    1 A*A^-1 deviation from orthogonality  is 1.33D-15 for   1489    977.
 Iteration    1 A^-1*A deviation from unit magnitude is 3.11D-15 for   1131.
 Iteration    1 A^-1*A deviation from orthogonality  is 1.33D-15 for   1559    455.
 E= -551.822276137264    
 DIIS: error= 1.96D-04 at cycle   1 NSaved=   1.
 NSaved= 1 IEnMin= 1 EnMin= -551.822276137264     IErMin= 1 ErrMin= 1.96D-04
 ErrMax= 1.96D-04  0.00D+00 EMaxC= 1.00D-01 BMatC= 1.94D-06 BMatP= 1.94D-06
 IDIUse=3 WtCom= 9.98D-01 WtEn= 1.96D-03
 Coeff-Com:  0.100D+01
 Coeff-En:   0.100D+01
 Coeff:      0.100D+01
 Gap=     0.823 Goal=   None    Shift=    0.000
 RMSDP=1.16D-05 MaxDP=5.86D-04              OVMax= 6.41D-04

 Cycle   2  Pass 1  IDiag  1:
 RMSU=  1.16D-05    CP:  1.00D+00
 E= -551.822280367645     Delta-E=       -0.000004230381 Rises=F Damp=F
 DIIS: error= 4.13D-05 at cycle   2 NSaved=   2.
 NSaved= 2 IEnMin= 2 EnMin= -551.822280367645     IErMin= 2 ErrMin= 4.13D-05
 ErrMax= 4.13D-05  0.00D+00 EMaxC= 1.00D-01 BMatC= 1.03D-07 BMatP= 1.94D-06
 IDIUse=1 WtCom= 1.00D+00 WtEn= 0.00D+00
 Coeff-Com: -0.275D+00 0.128D+01
 Coeff:     -0.275D+00 0.128D+01
 Gap=     0.327 Goal=   None    Shift=    0.000
 RMSDP=4.21D-06 MaxDP=1.76D-04 DE=-4.23D-06 OVMax= 2.74D-04

 Cycle   3  Pass 1  IDiag  1:
 RMSU=  2.38D-06    CP:  1.00D+00  1.30D+00
 E= -551.822280660804     Delta-E=       -0.000000293160 Rises=F Damp=F
 DIIS: error= 3.38D-06 at cycle   3 NSaved=   3.
 NSaved= 3 IEnMin= 3 EnMin= -551.822280660804     IErMin= 3 ErrMin= 3.38D-06
 ErrMax= 3.38D-06  0.00D+00 EMaxC= 1.00D-01 BMatC= 1.70D-09 BMatP= 1.03D-07
 IDIUse=1 WtCom= 1.00D+00 WtEn= 0.00D+00
 Coeff-Com: -0.720D-03-0.305D-01 0.103D+01
 Coeff:     -0.720D-03-0.305D-01 0.103D+01
 Gap=     0.327 Goal=   None    Shift=    0.000
 RMSDP=7.53D-07 MaxDP=2.35D-05 DE=-2.93D-07 OVMax= 2.64D-05

 Cycle   4  Pass 1  IDiag  1:
 RMSU=  4.44D-07    CP:  1.00D+00  1.32D+00  1.24D+00
 E= -551.822280662966     Delta-E=       -0.000000002162 Rises=F Damp=F
 DIIS: error= 2.58D-06 at cycle   4 NSaved=   4.
 NSaved= 4 IEnMin= 4 EnMin= -551.822280662966     IErMin= 4 ErrMin= 2.58D-06
 ErrMax= 2.58D-06  0.00D+00 EMaxC= 1.00D-01 BMatC= 2.02D-09 BMatP= 1.70D-09
 IDIUse=1 WtCom= 1.00D+00 WtEn= 0.00D+00
 Coeff-Com:  0.349D-01-0.183D+00 0.622D+00 0.526D+00
 Coeff:      0.349D-01-0.183D+00 0.622D+00 0.526D+00
 Gap=     0.327 Goal=   None    Shift=    0.000
 RMSDP=2.79D-07 MaxDP=9.05D-06 DE=-2.16D-09 OVMax= 9.69D-06

 Cycle   5  Pass 1  IDiag  1:
 RMSU=  1.35D-07    CP:  1.00D+00  1.32D+00  1.31D+00  6.20D-01
 E= -551.822280664567     Delta-E=       -0.000000001600 Rises=F Damp=F
 DIIS: error= 5.09D-07 at cycle   5 NSaved=   5.
 NSaved= 5 IEnMin= 5 EnMin= -551.822280664567     IErMin= 5 ErrMin= 5.09D-07
 ErrMax= 5.09D-07  0.00D+00 EMaxC= 1.00D-01 BMatC= 2.35D-11 BMatP= 1.70D-09
 IDIUse=1 WtCom= 1.00D+00 WtEn= 0.00D+00
 Coeff-Com:  0.962D-02-0.489D-01 0.120D+00 0.146D+00 0.774D+00
 Coeff:      0.962D-02-0.489D-01 0.120D+00 0.146D+00 0.774D+00
 Gap=     0.327 Goal=   None    Shift=    0.000
 RMSDP=4.95D-08 MaxDP=1.27D-06 DE=-1.60D-09 OVMax= 1.81D-06

 Cycle   6  Pass 1  IDiag  1:
 RMSU=  3.49D-08    CP:  1.00D+00  1.32D+00  1.32D+00  6.64D-01  1.05D+00
 E= -551.822280664582     Delta-E=       -0.000000000015 Rises=F Damp=F
 DIIS: error= 3.41D-07 at cycle   6 NSaved=   6.
 NSaved= 6 IEnMin= 6 EnMin= -551.822280664582     IErMin= 6 ErrMin= 3.41D-07
 ErrMax= 3.41D-07  0.00D+00 EMaxC= 1.00D-01 BMatC= 7.24D-12 BMatP= 2.35D-11
 IDIUse=1 WtCom= 1.00D+00 WtEn= 0.00D+00
 Coeff-Com:  0.437D-03-0.158D-02-0.183D-01 0.657D-02 0.385D+00 0.628D+00
 Coeff:      0.437D-03-0.158D-02-0.183D-01 0.657D-02 0.385D+00 0.628D+00
 Gap=     0.327 Goal=   None    Shift=    0.000
 RMSDP=1.84D-08 MaxDP=5.99D-07 DE=-1.49D-11 OVMax= 7.20D-07

 Cycle   7  Pass 1  IDiag  1:
 RMSU=  1.05D-08    CP:  1.00D+00  1.32D+00  1.33D+00  6.74D-01  1.12D+00
                    CP:  8.16D-01
 E= -551.822280664591     Delta-E=       -0.000000000009 Rises=F Damp=F
 DIIS: error= 3.94D-08 at cycle   7 NSaved=   7.
 NSaved= 7 IEnMin= 7 EnMin= -551.822280664591     IErMin= 7 ErrMin= 3.94D-08
 ErrMax= 3.94D-08  0.00D+00 EMaxC= 1.00D-01 BMatC= 3.27D-13 BMatP= 7.24D-12
 IDIUse=1 WtCom= 1.00D+00 WtEn= 0.00D+00
 Coeff-Com: -0.593D-03 0.324D-02-0.154D-01-0.929D-02 0.687D-01 0.213D+00
 Coeff-Com:  0.740D+00
 Coeff:     -0.593D-03 0.324D-02-0.154D-01-0.929D-02 0.687D-01 0.213D+00
 Coeff:      0.740D+00
 Gap=     0.327 Goal=   None    Shift=    0.000
 RMSDP=5.88D-09 MaxDP=1.72D-07 DE=-9.44D-12 OVMax= 2.31D-07

 Error on total polarization charges =  0.00723
 SCF Done:  E(RwB97XD) =  -551.822280665     A.U. after    7 cycles
            NFock=  7  Conv=0.59D-08     -V/T= 2.0095
 KE= 5.466500446373D+02 PE=-2.597191183029D+03 EE= 8.422995371633D+02
 Leave Link  502 at Wed Feb 28 19:50:43 2024, MaxMem=  2147483648 cpu:             193.0 elap:               7.2
 (Enter /software/gaussian-16RevA.03-el7-x86_64/g16/l508.exe)
 QCSCF skips out because SCF is already converged.
 Leave Link  508 at Wed Feb 28 19:50:43 2024, MaxMem=  2147483648 cpu:               0.3 elap:               0.0
 (Enter /software/gaussian-16RevA.03-el7-x86_64/g16/l801.exe)
 DoSCS=F DFT=T ScalE2(SS,OS)=  1.000000  1.000000
 Range of M.O.s used for correlation:     1   182
 NBasis=   182 NAE=    42 NBE=    42 NFC=     0 NFV=     0
 NROrb=    182 NOA=    42 NOB=    42 NVA=   140 NVB=   140

 **** Warning!!: The largest alpha MO coefficient is  0.16783009D+02

 Leave Link  801 at Wed Feb 28 19:50:43 2024, MaxMem=  2147483648 cpu:               0.6 elap:               0.0
 (Enter /software/gaussian-16RevA.03-el7-x86_64/g16/l1101.exe)
 Leave Link 1101 at Wed Feb 28 19:50:43 2024, MaxMem=  2147483648 cpu:               1.3 elap:               0.1
 (Enter /software/gaussian-16RevA.03-el7-x86_64/g16/l1102.exe)
 Symmetrizing basis deriv contribution to polar:
 IMax=3 JMax=2 DiffMx= 0.00D+00
 Leave Link 1102 at Wed Feb 28 19:50:43 2024, MaxMem=  2147483648 cpu:               2.2 elap:               0.1
 (Enter /software/gaussian-16RevA.03-el7-x86_64/g16/l1110.exe)
 Leave Link 1110 at Wed Feb 28 19:50:43 2024, MaxMem=  2147483648 cpu:               1.2 elap:               0.1
 (Enter /software/gaussian-16RevA.03-el7-x86_64/g16/l1002.exe)
 Minotr:  Closed shell wavefunction.
 Leave Link 1002 at Wed Feb 28 19:50:43 2024, MaxMem=  2147483648 cpu:               1.7 elap:               0.1
 (Enter /software/gaussian-16RevA.03-el7-x86_64/g16/l701.exe)
 ... and contract with generalized density number  0.
 Compute integral first derivatives.
 R6Disp: Adding Grimme-D2 dispersion energy 1st derivatives to the gradient.
   1 Symmetry operations used in ECPInt.
 ECPInt:  NShTT=    3741 NPrTT=   15055 LenC2=    3665 LenP2D=   11026.
 LDataN:  DoStor=T MaxTD1= 5 Len=  102
 D1PCM: PCM CHGder 1st derivatives, ID1Alg=3 FixD1E=F DoIter=F DoCFld=F I1PDM=0.
 GePol: Maximum number of non-zero 1st derivatives   =     213
 Leave Link  701 at Wed Feb 28 19:50:44 2024, MaxMem=  2147483648 cpu:              19.1 elap:               0.7
 (Enter /software/gaussian-16RevA.03-el7-x86_64/g16/l702.exe)
 L702 exits ... SP integral derivatives will be done elsewhere.
 Leave Link  702 at Wed Feb 28 19:50:44 2024, MaxMem=  2147483648 cpu:               0.6 elap:               0.0
 (Enter /software/gaussian-16RevA.03-el7-x86_64/g16/l703.exe)
 Integral derivatives from FoFJK, PRISM(SPDF).
 Compute integral first derivatives, UseDBF=F ICtDFT=           0.
 Calling FoFJK, ICntrl=      2127 FMM=F ISym2X=0 I1Cent= 0 IOpClX= 0 NMat=1 NMatS=1 NMatT=0.
 FoFJK:  IHMeth= 1 ICntrl=    2127 DoSepK=T KAlg= 0 I1Cent=           0 FoldK=F
 IRaf=         1 NMat=       1 IRICut=       1 DoRegI=T DoRafI=F ISym2E= 0 IDoP0=0 IntGTp=1.
 FoFCou: FMM=F IPFlag=           0 FMFlag=      100000 FMFlg1=         800
         NFxFlg=           0 DoJE=F BraDBF=F KetDBF=F FulRan=T
         wScrn=  0.000000 ICntrl=      2527 IOpCl=  0 I1Cent=           0 NGrid=           0
         NMat0=    1 NMatS0=      1 NMatT0=    0 NMatD0=    1 NMtDS0=    0 NMtDT0=    0
 Symmetry not used in FoFCou.
 Leave Link  703 at Wed Feb 28 19:50:46 2024, MaxMem=  2147483648 cpu:              51.8 elap:               1.9
 (Enter /software/gaussian-16RevA.03-el7-x86_64/g16/l716.exe)
 Dipole        = 1.15835697D+00-8.40378893D-02-7.72209935D-02
 Polarizability= 0.00000000D+00 0.00000000D+00 0.00000000D+00
                 0.00000000D+00 0.00000000D+00 0.00000000D+00
 -------------------------------------------------------------------
 Center     Atomic                   Forces (Hartrees/Bohr)
 Number     Number              X              Y              Z
 -------------------------------------------------------------------
      1        6           0.000001851    0.000001396   -0.000002995
      2        7           0.000005791   -0.000003570   -0.000001756
      3        6           0.000001630    0.000007802    0.000003833
      4        8           0.000001445   -0.000005578    0.000000307
      5        6          -0.000003282   -0.000000482   -0.000000519
      6        6           0.000000894    0.000000916    0.000000327
      7        6           0.000000444    0.000001667    0.000000488
      8        6          -0.000000295    0.000001497   -0.000000166
      9        6          -0.000000854    0.000000916   -0.000000427
     10        6          -0.000003639    0.000001959    0.000000287
     11        6           0.000000868   -0.000008283   -0.000002572
     12        8          -0.000002441    0.000000346   -0.000000980
     13        1           0.000001184   -0.000000631    0.000000304
     14        1          -0.000000252   -0.000002214    0.000001227
     15        1          -0.000004614   -0.000001618    0.000002232
     16        1           0.000001564    0.000000125    0.000000637
     17        1           0.000001104    0.000001711    0.000000490
     18        1          -0.000000230    0.000002384   -0.000000146
     19        1          -0.000001168    0.000001656   -0.000000573
 -------------------------------------------------------------------
 Cartesian Forces:  Max     0.000008283 RMS     0.000002480
 Leave Link  716 at Wed Feb 28 19:50:46 2024, MaxMem=  2147483648 cpu:               0.6 elap:               0.0
 (Enter /software/gaussian-16RevA.03-el7-x86_64/g16/l103.exe)

 GradGradGradGradGradGradGradGradGradGradGradGradGradGradGradGradGradGrad
 Berny optimization.
 Using GEDIIS/GDIIS optimizer.
 FormGI is forming the generalized inverse of G from B-inverse, IUseBI=4.
 Internal  Forces:  Max     0.000005665 RMS     0.000001388
 Step   6 in ReCalcFC=50 IGetFC= 0 update Hessian.
 Search for a local minimum.
 Step number   6 out of a maximum of  114
 All quantities printed in internal units (Hartrees-Bohrs-Radians)
 RMS Force = .13879D-05 SwitMx=.10000D-02 MixMth= 2
 Mixed Optimization -- En-DIIS/RFO-DIIS
 Swapping is turned off.
 Update second derivatives using D2CorX and points    1    2    3    4    5
                                                      6
 DE= -1.69D-08 DEPred=-3.55D-08 R= 4.77D-01
 Trust test= 4.77D-01 RLast= 1.17D-02 DXMaxT set to 8.49D-01
 ITU=  0  1  0  1  1  0
     Eigenvalues ---    0.00046   0.00617   0.01006   0.01483   0.01593
     Eigenvalues ---    0.01799   0.01860   0.02151   0.02431   0.02713
     Eigenvalues ---    0.03030   0.03199   0.04333   0.04947   0.06048
     Eigenvalues ---    0.06190   0.10726   0.10757   0.12094   0.12460
     Eigenvalues ---    0.13335   0.14778   0.16796   0.18690   0.19163
     Eigenvalues ---    0.19390   0.19820   0.20677   0.22990   0.23165
     Eigenvalues ---    0.24424   0.28360   0.30272   0.34379   0.35546
     Eigenvalues ---    0.35889   0.36204   0.36789   0.37497   0.37613
     Eigenvalues ---    0.38033   0.38140   0.39581   0.41193   0.42851
     Eigenvalues ---    0.43745   0.48806   0.51078   0.53770   0.85901
     Eigenvalues ---    0.88261
 En-DIIS/RFO-DIIS/Sim-DIIS IScMMF=       -3 using points:     6    5    4
 RFO step:  Lambda=-1.76726093D-08.
 NNeg= 0 NGDIIS= 3 SimSw=  2.50D-01 Rises=F DC= -1.69D-08 SmlDif=  1.00D-05
 NRisDI= 0 DoIntr=F SqrtH=F CThrHd= 10.0 CDAdj=  3.0
 RMS Error=  0.6064447477D-03 NUsed= 3 OKEnD=F EnDIS=F
 InvSVX:  RCond= 2.18D-07 Info=           0 Equed=N FErr=  2.51D-13 BErr=  5.56D-17
 DidBck=T Rises=F RFO-DIIS coefs:    0.77121    0.21919    0.00960
 Iteration  1 RMS(Cart)=  0.00106825 RMS(Int)=  0.00000149
 Iteration  2 RMS(Cart)=  0.00000153 RMS(Int)=  0.00000005
 Iteration  3 RMS(Cart)=  0.00000000 RMS(Int)=  0.00000005
 ITry= 1 IFail=0 DXMaxC= 5.76D-03 DCOld= 1.00D+10 DXMaxT= 8.49D-01 DXLimC= 3.00D+00 Rises=F
 Variable       Old X    -DE/DX   Delta X   Delta X   Delta X     New X
                                 (Linear)    (Quad)   (Total)
    R1        2.72992   0.00000   0.00001  -0.00000   0.00000   2.72992
    R2        2.08174  -0.00000   0.00002   0.00000   0.00002   2.08176
    R3        2.08176   0.00000  -0.00002  -0.00000  -0.00002   2.08173
    R4        2.07692   0.00000   0.00001  -0.00000   0.00000   2.07693
    R5        2.63307  -0.00000   0.00001  -0.00002  -0.00000   2.63307
    R6        2.63715  -0.00001  -0.00000  -0.00001  -0.00002   2.63714
    R7        2.27985   0.00000   0.00000   0.00000   0.00001   2.27986
    R8        2.82406  -0.00000  -0.00001  -0.00000  -0.00001   2.82405
    R9        2.61836   0.00000   0.00000  -0.00000   0.00000   2.61836
   R10        2.63223  -0.00000   0.00000  -0.00000  -0.00000   2.63223
   R11        2.64770   0.00000   0.00000   0.00000   0.00000   2.64770
   R12        2.06487   0.00000   0.00000  -0.00000   0.00000   2.06487
   R13        2.64384   0.00000   0.00000  -0.00000   0.00000   2.64384
   R14        2.06592   0.00000   0.00000  -0.00000   0.00000   2.06592
   R15        2.64770   0.00000   0.00000   0.00000   0.00000   2.64770
   R16        2.06588   0.00000   0.00000  -0.00000   0.00000   2.06588
   R17        2.61845   0.00000   0.00000  -0.00000   0.00000   2.61845
   R18        2.06487   0.00000   0.00000  -0.00000   0.00000   2.06487
   R19        2.82452  -0.00000  -0.00001  -0.00001  -0.00002   2.82450
   R20        2.27931   0.00000   0.00000  -0.00000   0.00000   2.27932
    A1        1.92864  -0.00000   0.00012  -0.00001   0.00011   1.92875
    A2        1.92891  -0.00000  -0.00015  -0.00001  -0.00016   1.92875
    A3        1.88175   0.00001   0.00007  -0.00000   0.00007   1.88182
    A4        1.90389   0.00000   0.00001  -0.00000   0.00001   1.90390
    A5        1.91021  -0.00000  -0.00006   0.00000  -0.00005   1.91015
    A6        1.91026  -0.00000   0.00001   0.00001   0.00002   1.91028
    A7        2.15272   0.00000   0.00002   0.00001   0.00003   2.15275
    A8        2.16970  -0.00000  -0.00002  -0.00001  -0.00003   2.16967
    A9        1.96077  -0.00000   0.00000  -0.00001  -0.00000   1.96077
   A10        2.18066   0.00000   0.00001   0.00001   0.00002   2.18069
   A11        1.84837  -0.00000  -0.00001   0.00001  -0.00000   1.84836
   A12        2.25415  -0.00000  -0.00000  -0.00002  -0.00002   2.25413
   A13        2.27684   0.00000  -0.00000   0.00000  -0.00000   2.27684
   A14        1.88376  -0.00000   0.00001  -0.00000   0.00000   1.88376
   A15        2.12259  -0.00000  -0.00000   0.00000  -0.00000   2.12258
   A16        2.04713  -0.00000   0.00000  -0.00000  -0.00000   2.04713
   A17        2.11708   0.00000   0.00000   0.00000   0.00000   2.11708
   A18        2.11897  -0.00000  -0.00000   0.00000  -0.00000   2.11897
   A19        2.11344   0.00000  -0.00000   0.00000   0.00000   2.11344
   A20        2.08651  -0.00000  -0.00000  -0.00000  -0.00000   2.08651
   A21        2.08323  -0.00000   0.00000  -0.00000  -0.00000   2.08323
   A22        2.11331  -0.00000  -0.00000   0.00000  -0.00000   2.11331
   A23        2.08328   0.00000   0.00000  -0.00000   0.00000   2.08328
   A24        2.08660   0.00000  -0.00000   0.00000  -0.00000   2.08660
   A25        2.04702  -0.00000   0.00000  -0.00000  -0.00000   2.04702
   A26        2.11917   0.00000  -0.00000   0.00000  -0.00000   2.11916
   A27        2.11700   0.00000  -0.00000   0.00000   0.00000   2.11700
   A28        2.12289   0.00000  -0.00000   0.00000   0.00000   2.12289
   A29        1.88627  -0.00000  -0.00000  -0.00001  -0.00001   1.88626
   A30        2.27403   0.00000   0.00000   0.00001   0.00001   2.27403
   A31        1.84562   0.00000   0.00000   0.00001   0.00001   1.84563
   A32        2.18938  -0.00000  -0.00001  -0.00000  -0.00001   2.18936
   A33        2.24819   0.00000   0.00001  -0.00001   0.00000   2.24819
    D1       -1.05166  -0.00000  -0.00318   0.00001  -0.00316  -1.05483
    D2        2.08948  -0.00000  -0.00333  -0.00000  -0.00334   2.08614
    D3        1.05743  -0.00000  -0.00319   0.00000  -0.00319   1.05424
    D4       -2.08462  -0.00000  -0.00335  -0.00002  -0.00336  -2.08798
    D5       -3.13860  -0.00000  -0.00322   0.00001  -0.00321   3.14138
    D6        0.00254  -0.00000  -0.00338  -0.00000  -0.00338  -0.00084
    D7       -0.00030  -0.00000  -0.00014   0.00000  -0.00014  -0.00044
    D8        3.14115  -0.00000  -0.00012  -0.00000  -0.00012   3.14103
    D9       -3.14149  -0.00000  -0.00000   0.00002   0.00002  -3.14147
   D10       -0.00004  -0.00000   0.00002   0.00001   0.00003  -0.00001
   D11       -3.14111   0.00000   0.00012   0.00000   0.00012  -3.14099
   D12        0.00051  -0.00000   0.00014   0.00001   0.00014   0.00065
   D13        0.00008   0.00000  -0.00003  -0.00001  -0.00003   0.00005
   D14       -3.14149  -0.00000  -0.00001  -0.00001  -0.00001  -3.14150
   D15       -3.14143   0.00000  -0.00003  -0.00000  -0.00004  -3.14146
   D16       -0.00002   0.00000  -0.00001  -0.00001  -0.00002  -0.00003
   D17        0.00001   0.00000  -0.00001  -0.00001  -0.00002  -0.00000
   D18        3.14142   0.00000   0.00001  -0.00001  -0.00000   3.14142
   D19        3.14142   0.00000   0.00002  -0.00001   0.00001   3.14144
   D20       -0.00017   0.00000   0.00002  -0.00001   0.00001  -0.00016
   D21        0.00003   0.00000  -0.00000  -0.00000  -0.00000   0.00003
   D22       -3.14156  -0.00000  -0.00001   0.00000  -0.00001  -3.14157
   D23       -3.14155  -0.00000  -0.00002   0.00001  -0.00001  -3.14156
   D24        0.00006  -0.00000  -0.00001   0.00000  -0.00000   0.00006
   D25       -0.00012   0.00000   0.00000  -0.00000   0.00000  -0.00012
   D26        3.14149   0.00000   0.00002  -0.00000   0.00001   3.14151
   D27        0.00006  -0.00000   0.00000   0.00000   0.00000   0.00006
   D28       -3.14146  -0.00000   0.00000   0.00000   0.00000  -3.14146
   D29       -3.14153   0.00000   0.00001  -0.00000   0.00001  -3.14153
   D30        0.00014   0.00000   0.00001  -0.00000   0.00000   0.00014
   D31       -0.00007   0.00000   0.00000  -0.00000   0.00000  -0.00007
   D32        3.14151  -0.00000  -0.00000   0.00000  -0.00000   3.14151
   D33        3.14145   0.00000   0.00000  -0.00000   0.00000   3.14145
   D34       -0.00016  -0.00000   0.00000  -0.00000   0.00000  -0.00016
   D35       -0.00001   0.00000  -0.00000  -0.00000  -0.00000  -0.00001
   D36       -3.14158  -0.00000  -0.00001   0.00000  -0.00001  -3.14158
   D37       -3.14159   0.00000  -0.00000  -0.00000  -0.00000   3.14159
   D38        0.00003   0.00000  -0.00000   0.00000  -0.00000   0.00003
   D39        0.00010  -0.00000   0.00000   0.00000   0.00000   0.00011
   D40       -3.14151  -0.00000  -0.00002   0.00000  -0.00001  -3.14152
   D41       -3.14152   0.00000   0.00000  -0.00000   0.00000  -3.14151
   D42        0.00005  -0.00000  -0.00001   0.00000  -0.00001   0.00004
   D43       -0.00009  -0.00000   0.00002   0.00000   0.00002  -0.00007
   D44        3.14148   0.00000  -0.00000  -0.00000  -0.00000   3.14148
   D45        3.14152  -0.00000   0.00003   0.00000   0.00003   3.14156
   D46       -0.00009   0.00000   0.00001  -0.00000   0.00001  -0.00008
         Item               Value     Threshold  Converged?
 Maximum Force            0.000006     0.000450     YES
 RMS     Force            0.000001     0.000300     YES
 Maximum Displacement     0.005758     0.001800     NO 
 RMS     Displacement     0.001068     0.001200     YES
 Predicted change in Energy=-7.705143D-09
 Lowest energy point so far.  Saving SCF results.
 Step   6 in ReCalcFC=50 IGetFC= 0 compute gradient.
 GradGradGradGradGradGradGradGradGradGradGradGradGradGradGradGradGradGrad

 Leave Link  103 at Wed Feb 28 19:50:46 2024, MaxMem=  2147483648 cpu:               3.3 elap:               0.2
 (Enter /software/gaussian-16RevA.03-el7-x86_64/g16/l202.exe)
                          Input orientation:                          
 ---------------------------------------------------------------------
 Center     Atomic      Atomic             Coordinates (Angstroms)
 Number     Number       Type             X           Y           Z
 ---------------------------------------------------------------------
      1          6           0       -3.188141    0.255455    0.217860
      2          7           0       -1.750754    0.147412    0.122211
      3          6           0       -1.093649   -1.024820   -0.245940
      4          8           0       -1.638765   -2.065181   -0.521648
      5          6           0        0.365286   -0.702215   -0.218971
      6          6           0        1.466673   -1.495265   -0.497962
      7          6           0        2.730870   -0.902003   -0.384199
      8          6           0        2.868871    0.437264   -0.003821
      9          6           0        1.747297    1.229106    0.275731
     10          6           0        0.502718    0.631197    0.159630
     11          6           0       -0.864141    1.192855    0.383784
     12          8           0       -1.177428    2.308047    0.719976
     13          1           0       -3.656672    0.045595   -0.756822
     14          1           0       -3.579504   -0.452594    0.965547
     15          1           0       -3.428478    1.282788    0.525698
     16          1           0        1.352888   -2.540749   -0.794558
     17          1           0        3.625252   -1.493986   -0.595876
     18          1           0        3.868963    0.871490    0.076125
     19          1           0        1.848714    2.275604    0.573236
 ---------------------------------------------------------------------
                    Distance matrix (angstroms):
                    1          2          3          4          5
     1  C    0.000000
     2  N    1.444612   0.000000
     3  C    2.498221   1.393358   0.000000
     4  O    2.886658   2.307090   1.206449   0.000000
     5  C    3.706048   2.305622   1.494421   2.442439   0.000000
     6  C    5.024412   3.665357   2.615356   3.157390   1.385576
     7  C    6.061096   4.630625   3.828988   4.523891   2.379750
     8  C    6.063793   4.630425   4.230588   5.181617   2.759102
     9  C    5.030894   3.664696   3.663782   4.790987   2.425837
    10  C    3.710393   2.305122   2.335651   3.510063   1.392915
    11  C    2.511419   1.395512   2.316744   3.469099   2.337967
    12  O    2.916885   2.313951   3.471024   4.569418   3.510450
    13  H    1.101621   2.101330   2.824159   2.929613   4.126093
    14  H    1.101606   2.101321   2.823936   2.928934   4.126350
    15  H    1.099063   2.065584   3.372225   3.938135   4.345965
    16  H    5.428139   4.207050   2.929943   3.041485   2.164917
    17  H    7.081316   5.666681   4.755061   5.295436   3.375847
    18  H    7.085359   5.666360   5.322334   6.270282   3.852192
    19  H    5.438492   4.205805   4.496815   5.674830   3.419876
                    6          7          8          9         10
     6  C    0.000000
     7  C    1.401105   0.000000
     8  C    2.438238   1.399060   0.000000
     9  C    2.845970   2.438145   1.401103   0.000000
    10  C    2.425588   2.758825   2.379707   1.385623   0.000000
    11  C    3.665536   4.231115   3.828385   2.613924   1.494660
    12  O    4.789554   5.176719   4.516220   3.148886   2.438997
    13  H    5.356298   6.468190   6.580511   5.627587   4.299225
    14  H    5.356578   6.468741   6.581266   5.628390   4.299843
    15  H    5.720836   6.598394   6.375884   5.182085   4.001609
    16  H    1.092682   2.180073   3.433953   3.938639   3.419723
    17  H    2.160798   1.093238   2.156935   3.420766   3.851936
    18  H    3.420834   2.156950   1.093219   2.160833   3.375844
    19  H    3.938638   3.433959   2.180185   1.092682   2.164913
                   11         12         13         14         15
    11  C    0.000000
    12  O    1.206162   0.000000
    13  H    3.227292   3.666916   0.000000
    14  H    3.227871   3.667617   1.794632   0.000000
    15  H    2.569835   2.481153   1.796546   1.796616   0.000000
    16  H    4.499278   5.675133   5.637933   5.637983   6.262904
    17  H    5.322922   6.265194   7.444637   7.445203   7.663126
    18  H    4.753967   5.286237   7.616501   7.617345   7.322836
    19  H    2.927084   3.029871   6.086975   6.087900   5.369980
                   16         17         18         19
    16  H    0.000000
    17  H    2.509746   0.000000
    18  H    4.328059   2.471125   0.000000
    19  H    5.031298   4.328131   2.509993   0.000000
 Symmetry turned off by external request.
 Stoichiometry    C9H7NO2
 Framework group  C1[X(C9H7NO2)]
 Deg. of freedom    51
 Full point group                 C1      NOp   1
 Rotational constants (GHZ):           1.7411706           0.8645458           0.5798512
 Leave Link  202 at Wed Feb 28 19:50:46 2024, MaxMem=  2147483648 cpu:               0.5 elap:               0.0
 (Enter /software/gaussian-16RevA.03-el7-x86_64/g16/l301.exe)
 Standard basis: def2SVPP (5D, 7F)
 Ernie: Thresh=  0.10000D-02 Tol=  0.10000D-05 Strict=F.
   182 basis functions,   328 primitive gaussians,   194 cartesian basis functions
    42 alpha electrons       42 beta electrons
       nuclear repulsion energy       656.4299637923 Hartrees.
 IExCor= 4639 DFT=T Ex+Corr=wB97XD ExCW=0 ScaHFX=  1.000000
 ScaDFX=  1.000000  1.000000  1.000000  1.000000 ScalE2=  1.000000  1.000000
 IRadAn=      5 IRanWt=     -1 IRanGd=            0 ICorTp=0 IEmpDi=121
 HFx  wShort=  0.000000 wLong=  0.200000 cFull=  0.222036 cShort=  0.000000 cLong=  0.777964
 DFx  wShort=  0.000000 wLong=  0.200000 cFull=  0.000000 cShort=  0.000000 cLong=  1.000000
 NAtoms=   19 NActive=   19 NUniq=   19 SFac= 1.00D+00 NAtFMM=   60 NAOKFM=F Big=F
 Integral buffers will be    131072 words long.
 Raffenetti 2 integral format.
 Two-electron integral symmetry is turned off.
 R6Disp:  Grimme-D2 Dispersion energy=       -0.0100151345 Hartrees.
 Nuclear repulsion after empirical dispersion term =      656.4199486578 Hartrees.
 Force inversion solution in PCM.
 ------------------------------------------------------------------------------
 Polarizable Continuum Model (PCM)
 =================================
 Model                : PCM.
 Atomic radii         : UFF (Universal Force Field).
 Polarization charges : Total charges.
 Charge compensation  : None.
 Solution method      : Matrix inversion.
 Cavity type          : Scaled VdW (van der Waals Surface) (Alpha=1.100).
 Cavity algorithm     : GePol (No added spheres)
                        Default sphere list used, NSphG=   19.
                        Lebedev-Laikov grids with approx.  5.0 points / Ang**2.
                        Smoothing algorithm: York/Karplus (Gamma=1.0000).
                        Polarization charges: spherical gaussians, with
                                              point-specific exponents (IZeta= 3).
                        Self-potential: point-specific (ISelfS= 7).
                        Self-field    : sphere-specific E.n sum rule (ISelfD= 2).
 1st derivatives      : Analytical E(r).r(x)/FMM algorithm (CHGder, D1EAlg=3).
                        Cavity 1st derivative terms included.
 Solvent              : n,n-DiMethylFormamide, Eps=  37.219000 Eps(inf)=   2.046330
 ------------------------------------------------------------------------------
 Spheres list:
 ISph  on   Nord     Re0    Alpha      Xe            Ye            Ze
    1   C      1    1.9255  1.100     -3.188141      0.255455      0.217860
    2   N      2    1.8300  1.100     -1.750754      0.147412      0.122211
    3   C      3    1.9255  1.100     -1.093649     -1.024820     -0.245940
    4   O      4    1.7500  1.100     -1.638765     -2.065181     -0.521648
    5   C      5    1.9255  1.100      0.365286     -0.702215     -0.218971
    6   C      6    1.9255  1.100      1.466673     -1.495265     -0.497962
    7   C      7    1.9255  1.100      2.730870     -0.902003     -0.384199
    8   C      8    1.9255  1.100      2.868871      0.437264     -0.003821
    9   C      9    1.9255  1.100      1.747297      1.229106      0.275731
   10   C     10    1.9255  1.100      0.502718      0.631197      0.159630
   11   C     11    1.9255  1.100     -0.864141      1.192855      0.383784
   12   O     12    1.7500  1.100     -1.177428      2.308047      0.719976
   13   H     13    1.4430  1.100     -3.656672      0.045595     -0.756822
   14   H     14    1.4430  1.100     -3.579504     -0.452594      0.965547
   15   H     15    1.4430  1.100     -3.428478      1.282788      0.525698
   16   H     16    1.4430  1.100      1.352888     -2.540749     -0.794558
   17   H     17    1.4430  1.100      3.625252     -1.493986     -0.595876
   18   H     18    1.4430  1.100      3.868963      0.871490      0.076125
   19   H     19    1.4430  1.100      1.848714      2.275604      0.573236
 ------------------------------------------------------------------------------
 GePol: Number of generator spheres                  =      19
 GePol: Total number of spheres                      =      19
 GePol: Number of exposed spheres                    =      19 (100.00%)
 GePol: Number of points                             =    1661
 GePol: Average weight of points                     =       0.13
 GePol: Minimum weight of points                     =   0.50D-09
 GePol: Maximum weight of points                     =    0.20577
 GePol: Number of points with low weight             =      98
 GePol: Fraction of low-weight points (<1% of avg)   =       5.90%
 GePol: Cavity surface area                          =    216.083 Ang**2
 GePol: Cavity volume                                =    219.190 Ang**3
 Leave Link  301 at Wed Feb 28 19:50:46 2024, MaxMem=  2147483648 cpu:               1.9 elap:               0.1
 (Enter /software/gaussian-16RevA.03-el7-x86_64/g16/l302.exe)
 NPDir=0 NMtPBC=     1 NCelOv=     1 NCel=       1 NClECP=     1 NCelD=      1
         NCelK=      1 NCelE2=     1 NClLst=     1 CellRange=     0.0.
 One-electron integrals computed using PRISM.
   1 Symmetry operations used in ECPInt.
 ECPInt:  NShTT=    3741 NPrTT=   15055 LenC2=    3665 LenP2D=   11026.
 LDataN:  DoStor=T MaxTD1= 4 Len=   56
 NBasis=   182 RedAO= T EigKep=  2.79D-04  NBF=   182
 NBsUse=   182 1.00D-06 EigRej= -1.00D+00 NBFU=   182
 Precomputing XC quadrature grid using
 IXCGrd= 4 IRadAn=           5 IRanWt=          -1 IRanGd=           0 AccXCQ= 0.00D+00.
 Generated NRdTot=       0 NPtTot=           0 NUsed=           0 NTot=          32
 NSgBfM=   193   193   193   193   193 MxSgAt=    19 MxSgA2=    19.
 Leave Link  302 at Wed Feb 28 19:50:47 2024, MaxMem=  2147483648 cpu:               5.3 elap:               0.2
 (Enter /software/gaussian-16RevA.03-el7-x86_64/g16/l303.exe)
 DipDrv:  MaxL=1.
 Leave Link  303 at Wed Feb 28 19:50:47 2024, MaxMem=  2147483648 cpu:               0.8 elap:               0.1
 (Enter /software/gaussian-16RevA.03-el7-x86_64/g16/l401.exe)
 Initial guess from the checkpoint file:  "NMPHTH-cavity-in-DMF-wB97XD.chk"
 B after Tr=     0.000003   -0.000013    0.000009
         Rot=    1.000000    0.000104   -0.000009   -0.000008 Ang=   0.01 deg.
 Guess basis will be translated and rotated to current coordinates.
 JPrj=2 DoOrth=T DoCkMO=T.
 Leave Link  401 at Wed Feb 28 19:50:47 2024, MaxMem=  2147483648 cpu:               3.3 elap:               0.2
 (Enter /software/gaussian-16RevA.03-el7-x86_64/g16/l502.exe)
 Two-electron integral symmetry not used.
 Closed shell SCF:
 Using DIIS extrapolation, IDIIS=  1040.
 NGot=  2147483648 LenX=  2147401213 LenY=  2147363136
 Requested convergence on RMS density matrix=1.00D-08 within  32 cycles.
 Requested convergence on MAX density matrix=1.00D-06.
 Requested convergence on             energy=1.00D-06.
 No special actions if energy rises.
 Fock matrices will be formed incrementally for  20 cycles.

 Cycle   1  Pass 1  IDiag  1:
 FoFJK:  IHMeth= 1 ICntrl=       0 DoSepK=T KAlg= 0 I1Cent=           0 FoldK=F
 IRaf=         1 NMat=       1 IRICut=       1 DoRegI=T DoRafI=F ISym2E= 0 IDoP0=0 IntGTp=1.
 FoFCou: FMM=F IPFlag=           0 FMFlag=      100000 FMFlg1=           0
         NFxFlg=           0 DoJE=T BraDBF=F KetDBF=F FulRan=T
         wScrn=  0.000000 ICntrl=       500 IOpCl=  0 I1Cent=           0 NGrid=           0
         NMat0=    1 NMatS0=      1 NMatT0=    0 NMatD0=    1 NMtDS0=    0 NMtDT0=    0
 Symmetry not used in FoFCou.
 Inv3:  Mode=1 IEnd=     8276763.
 Iteration    1 A*A^-1 deviation from unit magnitude is 3.77D-15 for    202.
 Iteration    1 A*A^-1 deviation from orthogonality  is 2.11D-15 for   1618    371.
 Iteration    1 A^-1*A deviation from unit magnitude is 4.00D-15 for    202.
 Iteration    1 A^-1*A deviation from orthogonality  is 2.45D-15 for   1165    695.
 E= -551.822278546898    
 DIIS: error= 1.33D-04 at cycle   1 NSaved=   1.
 NSaved= 1 IEnMin= 1 EnMin= -551.822278546898     IErMin= 1 ErrMin= 1.33D-04
 ErrMax= 1.33D-04  0.00D+00 EMaxC= 1.00D-01 BMatC= 9.11D-07 BMatP= 9.11D-07
 IDIUse=3 WtCom= 9.99D-01 WtEn= 1.33D-03
 Coeff-Com:  0.100D+01
 Coeff-En:   0.100D+01
 Coeff:      0.100D+01
 Gap=     0.823 Goal=   None    Shift=    0.000
 RMSDP=7.97D-06 MaxDP=4.05D-04              OVMax= 4.39D-04

 Cycle   2  Pass 1  IDiag  1:
 RMSU=  7.97D-06    CP:  1.00D+00
 E= -551.822280533059     Delta-E=       -0.000001986161 Rises=F Damp=F
 DIIS: error= 2.83D-05 at cycle   2 NSaved=   2.
 NSaved= 2 IEnMin= 2 EnMin= -551.822280533059     IErMin= 2 ErrMin= 2.83D-05
 ErrMax= 2.83D-05  0.00D+00 EMaxC= 1.00D-01 BMatC= 4.85D-08 BMatP= 9.11D-07
 IDIUse=1 WtCom= 1.00D+00 WtEn= 0.00D+00
 Coeff-Com: -0.277D+00 0.128D+01
 Coeff:     -0.277D+00 0.128D+01
 Gap=     0.327 Goal=   None    Shift=    0.000
 RMSDP=2.89D-06 MaxDP=1.22D-04 DE=-1.99D-06 OVMax= 1.88D-04

 Cycle   3  Pass 1  IDiag  1:
 RMSU=  1.63D-06    CP:  1.00D+00  1.30D+00
 E= -551.822280670956     Delta-E=       -0.000000137896 Rises=F Damp=F
 DIIS: error= 2.33D-06 at cycle   3 NSaved=   3.
 NSaved= 3 IEnMin= 3 EnMin= -551.822280670956     IErMin= 3 ErrMin= 2.33D-06
 ErrMax= 2.33D-06  0.00D+00 EMaxC= 1.00D-01 BMatC= 5.59D-10 BMatP= 4.85D-08
 IDIUse=1 WtCom= 1.00D+00 WtEn= 0.00D+00
 Coeff-Com:  0.287D-01-0.167D+00 0.114D+01
 Coeff:      0.287D-01-0.167D+00 0.114D+01
 Gap=     0.327 Goal=   None    Shift=    0.000
 RMSDP=5.33D-07 MaxDP=1.76D-05 DE=-1.38D-07 OVMax= 1.97D-05

 Cycle   4  Pass 1  IDiag  1:
 RMSU=  2.49D-07    CP:  1.00D+00  1.32D+00  1.27D+00
 E= -551.822280671990     Delta-E=       -0.000000001034 Rises=F Damp=F
 DIIS: error= 1.99D-06 at cycle   4 NSaved=   4.
 NSaved= 4 IEnMin= 4 EnMin= -551.822280671990     IErMin= 4 ErrMin= 1.99D-06
 ErrMax= 1.99D-06  0.00D+00 EMaxC= 1.00D-01 BMatC= 7.02D-10 BMatP= 5.59D-10
 IDIUse=1 WtCom= 1.00D+00 WtEn= 0.00D+00
 Coeff-Com:  0.379D-01-0.196D+00 0.691D+00 0.467D+00
 Coeff:      0.379D-01-0.196D+00 0.691D+00 0.467D+00
 Gap=     0.327 Goal=   None    Shift=    0.000
 RMSDP=1.47D-07 MaxDP=4.12D-06 DE=-1.03D-09 OVMax= 6.15D-06

 Cycle   5  Pass 1  IDiag  1:
 RMSU=  8.51D-08    CP:  1.00D+00  1.32D+00  1.32D+00  6.26D-01
 E= -551.822280672538     Delta-E=       -0.000000000548 Rises=F Damp=F
 DIIS: error= 1.60D-07 at cycle   5 NSaved=   5.
 NSaved= 5 IEnMin= 5 EnMin= -551.822280672538     IErMin= 5 ErrMin= 1.60D-07
 ErrMax= 1.60D-07  0.00D+00 EMaxC= 1.00D-01 BMatC= 4.23D-12 BMatP= 5.59D-10
 IDIUse=1 WtCom= 1.00D+00 WtEn= 0.00D+00
 Coeff-Com:  0.261D-02-0.124D-01 0.314D-02 0.588D-01 0.948D+00
 Coeff:      0.261D-02-0.124D-01 0.314D-02 0.588D-01 0.948D+00
 Gap=     0.327 Goal=   None    Shift=    0.000
 RMSDP=3.09D-08 MaxDP=7.72D-07 DE=-5.48D-10 OVMax= 9.97D-07

 Cycle   6  Pass 1  IDiag  1:
 RMSU=  1.41D-08    CP:  1.00D+00  1.32D+00  1.33D+00  6.88D-01  1.12D+00
 E= -551.822280672538     Delta-E=       -0.000000000001 Rises=F Damp=F
 DIIS: error= 6.25D-08 at cycle   6 NSaved=   6.
 NSaved= 6 IEnMin= 6 EnMin= -551.822280672538     IErMin= 6 ErrMin= 6.25D-08
 ErrMax= 6.25D-08  0.00D+00 EMaxC= 1.00D-01 BMatC= 6.19D-13 BMatP= 4.23D-12
 IDIUse=1 WtCom= 1.00D+00 WtEn= 0.00D+00
 Coeff-Com: -0.870D-03 0.489D-02-0.318D-01-0.185D-02 0.334D+00 0.696D+00
 Coeff:     -0.870D-03 0.489D-02-0.318D-01-0.185D-02 0.334D+00 0.696D+00
 Gap=     0.327 Goal=   None    Shift=    0.000
 RMSDP=7.32D-09 MaxDP=1.49D-07 DE=-7.96D-13 OVMax= 2.30D-07

 Error on total polarization charges =  0.00723
 SCF Done:  E(RwB97XD) =  -551.822280673     A.U. after    6 cycles
            NFock=  6  Conv=0.73D-08     -V/T= 2.0095
 KE= 5.466500624859D+02 PE=-2.597192461966D+03 EE= 8.423001701495D+02
 Leave Link  502 at Wed Feb 28 19:50:53 2024, MaxMem=  2147483648 cpu:             168.0 elap:               6.3
 (Enter /software/gaussian-16RevA.03-el7-x86_64/g16/l508.exe)
 QCSCF skips out because SCF is already converged.
 Leave Link  508 at Wed Feb 28 19:50:53 2024, MaxMem=  2147483648 cpu:               0.6 elap:               0.0
 (Enter /software/gaussian-16RevA.03-el7-x86_64/g16/l801.exe)
 DoSCS=F DFT=T ScalE2(SS,OS)=  1.000000  1.000000
 Range of M.O.s used for correlation:     1   182
 NBasis=   182 NAE=    42 NBE=    42 NFC=     0 NFV=     0
 NROrb=    182 NOA=    42 NOB=    42 NVA=   140 NVB=   140

 **** Warning!!: The largest alpha MO coefficient is  0.16782655D+02

 Leave Link  801 at Wed Feb 28 19:50:53 2024, MaxMem=  2147483648 cpu:               1.0 elap:               0.1
 (Enter /software/gaussian-16RevA.03-el7-x86_64/g16/l1101.exe)
 Leave Link 1101 at Wed Feb 28 19:50:53 2024, MaxMem=  2147483648 cpu:               2.5 elap:               0.1
 (Enter /software/gaussian-16RevA.03-el7-x86_64/g16/l1102.exe)
 Symmetrizing basis deriv contribution to polar:
 IMax=3 JMax=2 DiffMx= 0.00D+00
 Leave Link 1102 at Wed Feb 28 19:50:53 2024, MaxMem=  2147483648 cpu:               0.8 elap:               0.1
 (Enter /software/gaussian-16RevA.03-el7-x86_64/g16/l1110.exe)
 Leave Link 1110 at Wed Feb 28 19:50:53 2024, MaxMem=  2147483648 cpu:               0.7 elap:               0.0
 (Enter /software/gaussian-16RevA.03-el7-x86_64/g16/l1002.exe)
 Minotr:  Closed shell wavefunction.
 Leave Link 1002 at Wed Feb 28 19:50:54 2024, MaxMem=  2147483648 cpu:               1.2 elap:               0.1
 (Enter /software/gaussian-16RevA.03-el7-x86_64/g16/l701.exe)
 ... and contract with generalized density number  0.
 Compute integral first derivatives.
 R6Disp: Adding Grimme-D2 dispersion energy 1st derivatives to the gradient.
   1 Symmetry operations used in ECPInt.
 ECPInt:  NShTT=    3741 NPrTT=   15055 LenC2=    3665 LenP2D=   11026.
 LDataN:  DoStor=T MaxTD1= 5 Len=  102
 D1PCM: PCM CHGder 1st derivatives, ID1Alg=3 FixD1E=F DoIter=F DoCFld=F I1PDM=0.
 GePol: Maximum number of non-zero 1st derivatives   =     213
 Leave Link  701 at Wed Feb 28 19:50:54 2024, MaxMem=  2147483648 cpu:              19.1 elap:               0.7
 (Enter /software/gaussian-16RevA.03-el7-x86_64/g16/l702.exe)
 L702 exits ... SP integral derivatives will be done elsewhere.
 Leave Link  702 at Wed Feb 28 19:50:54 2024, MaxMem=  2147483648 cpu:               2.3 elap:               0.2
 (Enter /software/gaussian-16RevA.03-el7-x86_64/g16/l703.exe)
 Integral derivatives from FoFJK, PRISM(SPDF).
 Compute integral first derivatives, UseDBF=F ICtDFT=           0.
 Calling FoFJK, ICntrl=      2127 FMM=F ISym2X=0 I1Cent= 0 IOpClX= 0 NMat=1 NMatS=1 NMatT=0.
 FoFJK:  IHMeth= 1 ICntrl=    2127 DoSepK=T KAlg= 0 I1Cent=           0 FoldK=F
 IRaf=         1 NMat=       1 IRICut=       1 DoRegI=T DoRafI=F ISym2E= 0 IDoP0=0 IntGTp=1.
 FoFCou: FMM=F IPFlag=           0 FMFlag=      100000 FMFlg1=         800
         NFxFlg=           0 DoJE=F BraDBF=F KetDBF=F FulRan=T
         wScrn=  0.000000 ICntrl=      2527 IOpCl=  0 I1Cent=           0 NGrid=           0
         NMat0=    1 NMatS0=      1 NMatT0=    0 NMatD0=    1 NMtDS0=    0 NMtDT0=    0
 Symmetry not used in FoFCou.
 Leave Link  703 at Wed Feb 28 19:50:56 2024, MaxMem=  2147483648 cpu:              52.5 elap:               1.9
 (Enter /software/gaussian-16RevA.03-el7-x86_64/g16/l716.exe)
 Dipole        = 1.15833873D+00-8.40169484D-02-7.71923123D-02
 Polarizability= 0.00000000D+00 0.00000000D+00 0.00000000D+00
                 0.00000000D+00 0.00000000D+00 0.00000000D+00
 -------------------------------------------------------------------
 Center     Atomic                   Forces (Hartrees/Bohr)
 Number     Number              X              Y              Z
 -------------------------------------------------------------------
      1        6          -0.000001128   -0.000008766   -0.000001489
      2        7           0.000000198    0.000000940    0.000001153
      3        6          -0.000001036    0.000000556    0.000000616
      4        8          -0.000000115    0.000000289    0.000000831
      5        6           0.000001491    0.000000512    0.000000201
      6        6           0.000000937    0.000000738    0.000000470
      7        6           0.000000474    0.000001358    0.000000260
      8        6          -0.000000276    0.000001717   -0.000000070
      9        6          -0.000000595    0.000001230   -0.000000310
     10        6           0.000000244    0.000000238   -0.000000252
     11        6          -0.000000931    0.000001011   -0.000000271
     12        8          -0.000000164   -0.000000104   -0.000000206
     13        1          -0.000001912   -0.000002555   -0.000000088
     14        1          -0.000001245   -0.000001366    0.000000052
     15        1           0.000003631   -0.000001740   -0.000001236
     16        1           0.000001447    0.000000649    0.000000791
     17        1           0.000000836    0.000001927    0.000000464
     18        1          -0.000000541    0.000002233   -0.000000236
     19        1          -0.000001314    0.000001133   -0.000000678
 -------------------------------------------------------------------
 Cartesian Forces:  Max     0.000008766 RMS     0.000001604
 Leave Link  716 at Wed Feb 28 19:50:56 2024, MaxMem=  2147483648 cpu:               0.6 elap:               0.0
 (Enter /software/gaussian-16RevA.03-el7-x86_64/g16/l103.exe)

 GradGradGradGradGradGradGradGradGradGradGradGradGradGradGradGradGradGrad
 Berny optimization.
 Using GEDIIS/GDIIS optimizer.
 FormGI is forming the generalized inverse of G from B-inverse, IUseBI=4.
 Internal  Forces:  Max     0.000007495 RMS     0.000001242
 Step   7 in ReCalcFC=50 IGetFC= 0 update Hessian.
 Search for a local minimum.
 Step number   7 out of a maximum of  114
 All quantities printed in internal units (Hartrees-Bohrs-Radians)
 RMS Force = .12418D-05 SwitMx=.10000D-02 MixMth= 2
 Mixed Optimization -- En-DIIS/RFO-DIIS
 Swapping is turned off.
 Update second derivatives using D2CorX and points    1    2    3    4    5
                                                      6    7
 DE= -7.95D-09 DEPred=-7.71D-09 R= 1.03D+00
 Trust test= 1.03D+00 RLast= 8.03D-03 DXMaxT set to 8.49D-01
 ITU=  0  0  1  0  1  1  0
     Eigenvalues ---    0.00045   0.00615   0.01006   0.01482   0.01589
     Eigenvalues ---    0.01799   0.01860   0.02151   0.02431   0.02713
     Eigenvalues ---    0.03030   0.03199   0.04331   0.04946   0.06040
     Eigenvalues ---    0.06137   0.10726   0.10757   0.12095   0.12460
     Eigenvalues ---    0.13312   0.14773   0.16656   0.18298   0.18710
     Eigenvalues ---    0.19119   0.19593   0.20292   0.22465   0.24301
     Eigenvalues ---    0.24476   0.28358   0.30208   0.35164   0.35569
     Eigenvalues ---    0.35897   0.36602   0.36740   0.37494   0.37748
     Eigenvalues ---    0.37944   0.38140   0.39046   0.41209   0.43300
     Eigenvalues ---    0.43743   0.49108   0.51078   0.53719   0.85883
     Eigenvalues ---    0.88682
 En-DIIS/RFO-DIIS/Sim-DIIS IScMMF=       -3 using points:     7    6    5    4
 RFO step:  Lambda=-6.14309347D-10.
 NNeg= 0 NGDIIS= 4 SimSw=  2.50D-01 Rises=F DC= -7.95D-09 SmlDif=  1.00D-05
 NRisDI= 0 DoIntr=F SqrtH=F CThrHd= 10.0 CDAdj=  3.0
 RMS Error=  0.1815448725D-03 NUsed= 4 OKEnD=F EnDIS=F
 InvSVX:  RCond= 8.13D-10 Info=           0 Equed=N FErr=  7.37D-12 BErr=  6.04D-17
 DIIS inversion failure, remove point   4.
 InvSVX:  RCond= 1.87D-08 Info=           0 Equed=N FErr=  1.34D-13 BErr=  5.02D-17
 DIIS inversion failure, remove point   3.
 InvSVX:  RCond= 7.25D-05 Info=           0 Equed=N FErr=  1.12D-15 BErr=  8.97D-17
 RFO-DIIS uses    2 points instead of    4
 DidBck=T Rises=F RFO-DIIS coefs:    0.77511    0.22489    0.00000    0.00000
 Iteration  1 RMS(Cart)=  0.00024066 RMS(Int)=  0.00000008
 Iteration  2 RMS(Cart)=  0.00000008 RMS(Int)=  0.00000000
 ITry= 1 IFail=0 DXMaxC= 1.30D-03 DCOld= 1.00D+10 DXMaxT= 8.49D-01 DXLimC= 3.00D+00 Rises=F
 Variable       Old X    -DE/DX   Delta X   Delta X   Delta X     New X
                                 (Linear)    (Quad)   (Total)
    R1        2.72992  -0.00000  -0.00000  -0.00000  -0.00000   2.72992
    R2        2.08176   0.00000  -0.00000   0.00000  -0.00000   2.08176
    R3        2.08173   0.00000   0.00001   0.00000   0.00001   2.08174
    R4        2.07693  -0.00000  -0.00000  -0.00000  -0.00000   2.07693
    R5        2.63307  -0.00000   0.00000  -0.00001  -0.00001   2.63306
    R6        2.63714   0.00000   0.00000   0.00000   0.00000   2.63714
    R7        2.27986  -0.00000  -0.00000   0.00000  -0.00000   2.27986
    R8        2.82405   0.00000   0.00000   0.00000   0.00000   2.82405
    R9        2.61836  -0.00000  -0.00000  -0.00000  -0.00000   2.61836
   R10        2.63223  -0.00000   0.00000  -0.00000  -0.00000   2.63223
   R11        2.64770  -0.00000  -0.00000  -0.00000  -0.00000   2.64770
   R12        2.06487  -0.00000  -0.00000  -0.00000  -0.00000   2.06487
   R13        2.64384   0.00000  -0.00000   0.00000   0.00000   2.64384
   R14        2.06592  -0.00000  -0.00000   0.00000  -0.00000   2.06592
   R15        2.64770   0.00000  -0.00000  -0.00000  -0.00000   2.64770
   R16        2.06588  -0.00000  -0.00000   0.00000  -0.00000   2.06588
   R17        2.61845   0.00000  -0.00000   0.00000   0.00000   2.61845
   R18        2.06487  -0.00000  -0.00000  -0.00000  -0.00000   2.06487
   R19        2.82450   0.00000   0.00000   0.00000   0.00000   2.82450
   R20        2.27932   0.00000  -0.00000  -0.00000  -0.00000   2.27932
    A1        1.92875   0.00000  -0.00002   0.00001  -0.00001   1.92873
    A2        1.92875   0.00000   0.00004   0.00001   0.00005   1.92880
    A3        1.88182  -0.00001  -0.00002  -0.00003  -0.00004   1.88178
    A4        1.90390  -0.00000  -0.00000   0.00000  -0.00000   1.90390
    A5        1.91015   0.00000   0.00001   0.00000   0.00001   1.91017
    A6        1.91028   0.00000  -0.00001   0.00000  -0.00000   1.91028
    A7        2.15275  -0.00000  -0.00001  -0.00001  -0.00002   2.15273
    A8        2.16967   0.00000   0.00001   0.00001   0.00002   2.16969
    A9        1.96077   0.00000   0.00000   0.00000   0.00000   1.96077
   A10        2.18069  -0.00000  -0.00000  -0.00001  -0.00001   2.18068
   A11        1.84836   0.00000   0.00000   0.00000   0.00000   1.84837
   A12        2.25413   0.00000   0.00000   0.00000   0.00001   2.25414
   A13        2.27684   0.00000   0.00000   0.00000   0.00000   2.27684
   A14        1.88376  -0.00000  -0.00000  -0.00000  -0.00000   1.88376
   A15        2.12258   0.00000   0.00000   0.00000   0.00000   2.12259
   A16        2.04713   0.00000   0.00000  -0.00000  -0.00000   2.04713
   A17        2.11708  -0.00000  -0.00000   0.00000  -0.00000   2.11708
   A18        2.11897   0.00000   0.00000   0.00000   0.00000   2.11897
   A19        2.11344  -0.00000  -0.00000   0.00000  -0.00000   2.11344
   A20        2.08651  -0.00000   0.00000  -0.00000   0.00000   2.08651
   A21        2.08323   0.00000   0.00000   0.00000   0.00000   2.08323
   A22        2.11331   0.00000   0.00000   0.00000   0.00000   2.11331
   A23        2.08328  -0.00000  -0.00000  -0.00000  -0.00000   2.08328
   A24        2.08660  -0.00000   0.00000  -0.00000  -0.00000   2.08660
   A25        2.04702  -0.00000   0.00000  -0.00000  -0.00000   2.04702
   A26        2.11916   0.00000   0.00000  -0.00000   0.00000   2.11916
   A27        2.11700   0.00000  -0.00000   0.00000   0.00000   2.11700
   A28        2.12289  -0.00000  -0.00000   0.00000  -0.00000   2.12289
   A29        1.88626  -0.00000   0.00000   0.00000   0.00000   1.88626
   A30        2.27403   0.00000  -0.00000  -0.00000  -0.00000   2.27403
   A31        1.84563  -0.00000  -0.00000  -0.00000  -0.00000   1.84563
   A32        2.18936   0.00000   0.00000   0.00000   0.00001   2.18937
   A33        2.24819  -0.00000  -0.00000  -0.00000  -0.00000   2.24819
    D1       -1.05483  -0.00000   0.00071   0.00000   0.00071  -1.05412
    D2        2.08614  -0.00000   0.00075  -0.00002   0.00073   2.08688
    D3        1.05424   0.00000   0.00072   0.00002   0.00073   1.05497
    D4       -2.08798   0.00000   0.00076   0.00000   0.00076  -2.08722
    D5        3.14138   0.00000   0.00072   0.00001   0.00073  -3.14108
    D6       -0.00084   0.00000   0.00076  -0.00001   0.00075  -0.00008
    D7       -0.00044  -0.00000   0.00003  -0.00001   0.00002  -0.00042
    D8        3.14103  -0.00000   0.00003  -0.00002   0.00001   3.14104
    D9       -3.14147   0.00000  -0.00000   0.00000  -0.00000  -3.14148
   D10       -0.00001  -0.00000  -0.00001  -0.00000  -0.00001  -0.00002
   D11       -3.14099   0.00000  -0.00003   0.00002  -0.00001  -3.14100
   D12        0.00065   0.00000  -0.00003   0.00002  -0.00001   0.00064
   D13        0.00005   0.00000   0.00001   0.00000   0.00001   0.00005
   D14       -3.14150   0.00000   0.00000   0.00000   0.00001  -3.14150
   D15       -3.14146   0.00000   0.00001  -0.00000   0.00001  -3.14145
   D16       -0.00003   0.00000   0.00000   0.00000   0.00000  -0.00003
   D17       -0.00000  -0.00000   0.00000  -0.00000   0.00000  -0.00000
   D18        3.14142  -0.00000   0.00000  -0.00000  -0.00000   3.14142
   D19        3.14144  -0.00000  -0.00000   0.00000  -0.00000   3.14143
   D20       -0.00016  -0.00000  -0.00000   0.00000  -0.00000  -0.00016
   D21        0.00003   0.00000   0.00000  -0.00000   0.00000   0.00003
   D22       -3.14157   0.00000   0.00000  -0.00000   0.00000  -3.14157
   D23       -3.14156  -0.00000   0.00000  -0.00000   0.00000  -3.14156
   D24        0.00006  -0.00000   0.00000  -0.00000   0.00000   0.00006
   D25       -0.00012  -0.00000  -0.00000   0.00000  -0.00000  -0.00012
   D26        3.14151  -0.00000  -0.00000   0.00000  -0.00000   3.14150
   D27        0.00006   0.00000  -0.00000   0.00000  -0.00000   0.00006
   D28       -3.14146   0.00000  -0.00000   0.00000  -0.00000  -3.14146
   D29       -3.14153   0.00000  -0.00000   0.00000  -0.00000  -3.14153
   D30        0.00014   0.00000  -0.00000   0.00000  -0.00000   0.00014
   D31       -0.00007  -0.00000  -0.00000   0.00000  -0.00000  -0.00007
   D32        3.14151   0.00000   0.00000   0.00000   0.00000   3.14151
   D33        3.14145  -0.00000  -0.00000   0.00000  -0.00000   3.14145
   D34       -0.00016   0.00000  -0.00000   0.00000   0.00000  -0.00016
   D35       -0.00001  -0.00000   0.00000  -0.00000   0.00000  -0.00001
   D36       -3.14158   0.00000   0.00000  -0.00000   0.00000  -3.14158
   D37        3.14159  -0.00000   0.00000  -0.00000   0.00000   3.14159
   D38        0.00003   0.00000   0.00000  -0.00000   0.00000   0.00003
   D39        0.00011   0.00000  -0.00000   0.00000  -0.00000   0.00011
   D40       -3.14152   0.00000   0.00000  -0.00000   0.00000  -3.14152
   D41       -3.14151   0.00000  -0.00000   0.00000  -0.00000  -3.14152
   D42        0.00004   0.00000   0.00000  -0.00000   0.00000   0.00004
   D43       -0.00007  -0.00000  -0.00000  -0.00000  -0.00000  -0.00007
   D44        3.14148  -0.00000   0.00000  -0.00000  -0.00000   3.14148
   D45        3.14156  -0.00000  -0.00001   0.00000  -0.00001   3.14155
   D46       -0.00008  -0.00000  -0.00000  -0.00000  -0.00000  -0.00008
         Item               Value     Threshold  Converged?
 Maximum Force            0.000007     0.000450     YES
 RMS     Force            0.000001     0.000300     YES
 Maximum Displacement     0.001303     0.001800     YES
 RMS     Displacement     0.000241     0.001200     YES
 Predicted change in Energy=-1.123236D-09
 Optimization completed.
    -- Stationary point found.
                           ----------------------------
                           !   Optimized Parameters   !
                           ! (Angstroms and Degrees)  !
 --------------------------                            --------------------------
 ! Name  Definition              Value          Derivative Info.                !
 --------------------------------------------------------------------------------
 ! R1    R(1,2)                  1.4446         -DE/DX =    0.0                 !
 ! R2    R(1,13)                 1.1016         -DE/DX =    0.0                 !
 ! R3    R(1,14)                 1.1016         -DE/DX =    0.0                 !
 ! R4    R(1,15)                 1.0991         -DE/DX =    0.0                 !
 ! R5    R(2,3)                  1.3934         -DE/DX =    0.0                 !
 ! R6    R(2,11)                 1.3955         -DE/DX =    0.0                 !
 ! R7    R(3,4)                  1.2064         -DE/DX =    0.0                 !
 ! R8    R(3,5)                  1.4944         -DE/DX =    0.0                 !
 ! R9    R(5,6)                  1.3856         -DE/DX =    0.0                 !
 ! R10   R(5,10)                 1.3929         -DE/DX =    0.0                 !
 ! R11   R(6,7)                  1.4011         -DE/DX =    0.0                 !
 ! R12   R(6,16)                 1.0927         -DE/DX =    0.0                 !
 ! R13   R(7,8)                  1.3991         -DE/DX =    0.0                 !
 ! R14   R(7,17)                 1.0932         -DE/DX =    0.0                 !
 ! R15   R(8,9)                  1.4011         -DE/DX =    0.0                 !
 ! R16   R(8,18)                 1.0932         -DE/DX =    0.0                 !
 ! R17   R(9,10)                 1.3856         -DE/DX =    0.0                 !
 ! R18   R(9,19)                 1.0927         -DE/DX =    0.0                 !
 ! R19   R(10,11)                1.4947         -DE/DX =    0.0                 !
 ! R20   R(11,12)                1.2062         -DE/DX =    0.0                 !
 ! A1    A(2,1,13)             110.509          -DE/DX =    0.0                 !
 ! A2    A(2,1,14)             110.5092         -DE/DX =    0.0                 !
 ! A3    A(2,1,15)             107.8205         -DE/DX =    0.0                 !
 ! A4    A(13,1,14)            109.0852         -DE/DX =    0.0                 !
 ! A5    A(13,1,15)            109.4438         -DE/DX =    0.0                 !
 ! A6    A(14,1,15)            109.4511         -DE/DX =    0.0                 !
 ! A7    A(1,2,3)              123.3434         -DE/DX =    0.0                 !
 ! A8    A(1,2,11)             124.3131         -DE/DX =    0.0                 !
 ! A9    A(3,2,11)             112.3436         -DE/DX =    0.0                 !
 ! A10   A(2,3,4)              124.9442         -DE/DX =    0.0                 !
 ! A11   A(2,3,5)              105.9035         -DE/DX =    0.0                 !
 ! A12   A(4,3,5)              129.1523         -DE/DX =    0.0                 !
 ! A13   A(3,5,6)              130.4534         -DE/DX =    0.0                 !
 ! A14   A(3,5,10)             107.9314         -DE/DX =    0.0                 !
 ! A15   A(6,5,10)             121.6152         -DE/DX =    0.0                 !
 ! A16   A(5,6,7)              117.2918         -DE/DX =    0.0                 !
 ! A17   A(5,6,16)             121.2999         -DE/DX =    0.0                 !
 ! A18   A(7,6,16)             121.4083         -DE/DX =    0.0                 !
 ! A19   A(6,7,8)              121.0913         -DE/DX =    0.0                 !
 ! A20   A(6,7,17)             119.5485         -DE/DX =    0.0                 !
 ! A21   A(8,7,17)             119.3603         -DE/DX =    0.0                 !
 ! A22   A(7,8,9)              121.0837         -DE/DX =    0.0                 !
 ! A23   A(7,8,18)             119.363          -DE/DX =    0.0                 !
 ! A24   A(9,8,18)             119.5533         -DE/DX =    0.0                 !
 ! A25   A(8,9,10)             117.2854         -DE/DX =    0.0                 !
 ! A26   A(8,9,19)             121.4192         -DE/DX =    0.0                 !
 ! A27   A(10,9,19)            121.2954         -DE/DX =    0.0                 !
 ! A28   A(5,10,9)             121.6327         -DE/DX =    0.0                 !
 ! A29   A(5,10,11)            108.0747         -DE/DX =    0.0                 !
 ! A30   A(9,10,11)            130.2926         -DE/DX =    0.0                 !
 ! A31   A(2,11,10)            105.7468         -DE/DX =    0.0                 !
 ! A32   A(2,11,12)            125.4413         -DE/DX =    0.0                 !
 ! A33   A(10,11,12)           128.8119         -DE/DX =    0.0                 !
 ! D1    D(13,1,2,3)           -60.4372         -DE/DX =    0.0                 !
 ! D2    D(13,1,2,11)          119.5273         -DE/DX =    0.0                 !
 ! D3    D(14,1,2,3)            60.4033         -DE/DX =    0.0                 !
 ! D4    D(14,1,2,11)         -119.6322         -DE/DX =    0.0                 !
 ! D5    D(15,1,2,3)          -180.0124         -DE/DX =    0.0                 !
 ! D6    D(15,1,2,11)           -0.048          -DE/DX =    0.0                 !
 ! D7    D(1,2,3,4)             -0.025          -DE/DX =    0.0                 !
 ! D8    D(1,2,3,5)            179.9677         -DE/DX =    0.0                 !
 ! D9    D(11,2,3,4)          -179.9932         -DE/DX =    0.0                 !
 ! D10   D(11,2,3,5)            -0.0006         -DE/DX =    0.0                 !
 ! D11   D(1,2,11,10)         -179.9652         -DE/DX =    0.0                 !
 ! D12   D(1,2,11,12)            0.0373         -DE/DX =    0.0                 !
 ! D13   D(3,2,11,10)            0.0027         -DE/DX =    0.0                 !
 ! D14   D(3,2,11,12)         -179.9948         -DE/DX =    0.0                 !
 ! D15   D(2,3,5,6)           -179.9925         -DE/DX =    0.0                 !
 ! D16   D(2,3,5,10)            -0.002          -DE/DX =    0.0                 !
 ! D17   D(4,3,5,6)             -0.0002         -DE/DX =    0.0                 !
 ! D18   D(4,3,5,10)           179.9903         -DE/DX =    0.0                 !
 ! D19   D(3,5,6,7)            179.9911         -DE/DX =    0.0                 !
 ! D20   D(3,5,6,16)            -0.0093         -DE/DX =    0.0                 !
 ! D21   D(10,5,6,7)             0.0016         -DE/DX =    0.0                 !
 ! D22   D(10,5,6,16)         -179.9987         -DE/DX =    0.0                 !
 ! D23   D(3,5,10,9)          -179.9982         -DE/DX =    0.0                 !
 ! D24   D(3,5,10,11)            0.0035         -DE/DX =    0.0                 !
 ! D25   D(6,5,10,9)            -0.0066         -DE/DX =    0.0                 !
 ! D26   D(6,5,10,11)          179.9951         -DE/DX =    0.0                 !
 ! D27   D(5,6,7,8)              0.0035         -DE/DX =    0.0                 !
 ! D28   D(5,6,7,17)          -179.9921         -DE/DX =    0.0                 !
 ! D29   D(16,6,7,8)          -179.9961         -DE/DX =    0.0                 !
 ! D30   D(16,6,7,17)            0.0082         -DE/DX =    0.0                 !
 ! D31   D(6,7,8,9)             -0.004          -DE/DX =    0.0                 !
 ! D32   D(6,7,8,18)           179.9952         -DE/DX =    0.0                 !
 ! D33   D(17,7,8,9)           179.9917         -DE/DX =    0.0                 !
 ! D34   D(17,7,8,18)           -0.0091         -DE/DX =    0.0                 !
 ! D35   D(7,8,9,10)            -0.0008         -DE/DX =    0.0                 !
 ! D36   D(7,8,9,19)          -179.9993         -DE/DX =    0.0                 !
 ! D37   D(18,8,9,10)          180.0            -DE/DX =    0.0                 !
 ! D38   D(18,8,9,19)            0.0015         -DE/DX =    0.0                 !
 ! D39   D(8,9,10,5)             0.006          -DE/DX =    0.0                 !
 ! D40   D(8,9,10,11)         -179.9961         -DE/DX =    0.0                 !
 ! D41   D(19,9,10,5)         -179.9955         -DE/DX =    0.0                 !
 ! D42   D(19,9,10,11)           0.0024         -DE/DX =    0.0                 !
 ! D43   D(5,10,11,2)           -0.0039         -DE/DX =    0.0                 !
 ! D44   D(5,10,11,12)         179.9935         -DE/DX =    0.0                 !
 ! D45   D(9,10,11,2)          179.9981         -DE/DX =    0.0                 !
 ! D46   D(9,10,11,12)          -0.0046         -DE/DX =    0.0                 !
 --------------------------------------------------------------------------------
 Lowest energy point so far.  Saving SCF results.
 Largest change from initial coordinates is atom   12       0.031 Angstoms.
 Step   7 in ReCalcFC=50 IGetFC= 0 compute gradient.
 GradGradGradGradGradGradGradGradGradGradGradGradGradGradGradGradGradGrad

 Leave Link  103 at Wed Feb 28 19:50:57 2024, MaxMem=  2147483648 cpu:               1.7 elap:               0.1
 (Enter /software/gaussian-16RevA.03-el7-x86_64/g16/l202.exe)
                          Input orientation:                          
 ---------------------------------------------------------------------
 Center     Atomic      Atomic             Coordinates (Angstroms)
 Number     Number       Type             X           Y           Z
 ---------------------------------------------------------------------
      1          6           0       -3.188141    0.255455    0.217860
      2          7           0       -1.750754    0.147412    0.122211
      3          6           0       -1.093649   -1.024820   -0.245940
      4          8           0       -1.638765   -2.065181   -0.521648
      5          6           0        0.365286   -0.702215   -0.218971
      6          6           0        1.466673   -1.495265   -0.497962
      7          6           0        2.730870   -0.902003   -0.384199
      8          6           0        2.868871    0.437264   -0.003821
      9          6           0        1.747297    1.229106    0.275731
     10          6           0        0.502718    0.631197    0.159630
     11          6           0       -0.864141    1.192855    0.383784
     12          8           0       -1.177428    2.308047    0.719976
     13          1           0       -3.656672    0.045595   -0.756822
     14          1           0       -3.579504   -0.452594    0.965547
     15          1           0       -3.428478    1.282788    0.525698
     16          1           0        1.352888   -2.540749   -0.794558
     17          1           0        3.625252   -1.493986   -0.595876
     18          1           0        3.868963    0.871490    0.076125
     19          1           0        1.848714    2.275604    0.573236
 ---------------------------------------------------------------------
                    Distance matrix (angstroms):
                    1          2          3          4          5
     1  C    0.000000
     2  N    1.444612   0.000000
     3  C    2.498221   1.393358   0.000000
     4  O    2.886658   2.307090   1.206449   0.000000
     5  C    3.706048   2.305622   1.494421   2.442439   0.000000
     6  C    5.024412   3.665357   2.615356   3.157390   1.385576
     7  C    6.061096   4.630625   3.828988   4.523891   2.379750
     8  C    6.063793   4.630425   4.230588   5.181617   2.759102
     9  C    5.030894   3.664696   3.663782   4.790987   2.425837
    10  C    3.710393   2.305122   2.335651   3.510063   1.392915
    11  C    2.511419   1.395512   2.316744   3.469099   2.337967
    12  O    2.916885   2.313951   3.471024   4.569418   3.510450
    13  H    1.101621   2.101330   2.824159   2.929613   4.126093
    14  H    1.101606   2.101321   2.823936   2.928934   4.126350
    15  H    1.099063   2.065584   3.372225   3.938135   4.345965
    16  H    5.428139   4.207050   2.929943   3.041485   2.164917
    17  H    7.081316   5.666681   4.755061   5.295436   3.375847
    18  H    7.085359   5.666360   5.322334   6.270282   3.852192
    19  H    5.438492   4.205805   4.496815   5.674830   3.419876
                    6          7          8          9         10
     6  C    0.000000
     7  C    1.401105   0.000000
     8  C    2.438238   1.399060   0.000000
     9  C    2.845970   2.438145   1.401103   0.000000
    10  C    2.425588   2.758825   2.379707   1.385623   0.000000
    11  C    3.665536   4.231115   3.828385   2.613924   1.494660
    12  O    4.789554   5.176719   4.516220   3.148886   2.438997
    13  H    5.356298   6.468190   6.580511   5.627587   4.299225
    14  H    5.356578   6.468741   6.581266   5.628390   4.299843
    15  H    5.720836   6.598394   6.375884   5.182085   4.001609
    16  H    1.092682   2.180073   3.433953   3.938639   3.419723
    17  H    2.160798   1.093238   2.156935   3.420766   3.851936
    18  H    3.420834   2.156950   1.093219   2.160833   3.375844
    19  H    3.938638   3.433959   2.180185   1.092682   2.164913
                   11         12         13         14         15
    11  C    0.000000
    12  O    1.206162   0.000000
    13  H    3.227292   3.666916   0.000000
    14  H    3.227871   3.667617   1.794632   0.000000
    15  H    2.569835   2.481153   1.796546   1.796616   0.000000
    16  H    4.499278   5.675133   5.637933   5.637983   6.262904
    17  H    5.322922   6.265194   7.444637   7.445203   7.663126
    18  H    4.753967   5.286237   7.616501   7.617345   7.322836
    19  H    2.927084   3.029871   6.086975   6.087900   5.369980
                   16         17         18         19
    16  H    0.000000
    17  H    2.509746   0.000000
    18  H    4.328059   2.471125   0.000000
    19  H    5.031298   4.328131   2.509993   0.000000
 Symmetry turned off by external request.
 Stoichiometry    C9H7NO2
 Framework group  C1[X(C9H7NO2)]
 Deg. of freedom    51
 Full point group                 C1      NOp   1
 Rotational constants (GHZ):           1.7411706           0.8645458           0.5798512
 Leave Link  202 at Wed Feb 28 19:50:57 2024, MaxMem=  2147483648 cpu:               0.3 elap:               0.0
 (Enter /software/gaussian-16RevA.03-el7-x86_64/g16/l601.exe)
 Copying SCF densities to generalized density rwf, IOpCl= 0 IROHF=0.

 **********************************************************************

            Population analysis using the SCF density.

 **********************************************************************

 Alpha  occ. eigenvalues --  -19.26421 -19.26361 -14.50147 -10.43309 -10.43159
 Alpha  occ. eigenvalues --  -10.33213 -10.33010 -10.32967 -10.32824 -10.32815
 Alpha  occ. eigenvalues --  -10.32431 -10.32391  -1.17734  -1.15679  -1.06535
 Alpha  occ. eigenvalues --   -0.98168  -0.89892  -0.86933  -0.81473  -0.76752
 Alpha  occ. eigenvalues --   -0.72436  -0.71295  -0.66444  -0.61334  -0.59277
 Alpha  occ. eigenvalues --   -0.59047  -0.57802  -0.54720  -0.54663  -0.53772
 Alpha  occ. eigenvalues --   -0.52843  -0.51267  -0.50058  -0.49267  -0.46972
 Alpha  occ. eigenvalues --   -0.46878  -0.45983  -0.38717  -0.37261  -0.36447
 Alpha  occ. eigenvalues --   -0.35763  -0.34832
 Alpha virt. eigenvalues --   -0.02133   0.02397   0.09992   0.14738   0.14879
 Alpha virt. eigenvalues --    0.16227   0.18529   0.20831   0.21419   0.22742
 Alpha virt. eigenvalues --    0.22902   0.23769   0.24563   0.27300   0.28861
 Alpha virt. eigenvalues --    0.30848   0.31845   0.35220   0.36363   0.37413
 Alpha virt. eigenvalues --    0.39399   0.40763   0.42009   0.44518   0.46217
 Alpha virt. eigenvalues --    0.48734   0.49071   0.50956   0.53635   0.53669
 Alpha virt. eigenvalues --    0.54059   0.55096   0.55442   0.57525   0.59222
 Alpha virt. eigenvalues --    0.60078   0.64813   0.66689   0.67657   0.70415
 Alpha virt. eigenvalues --    0.71768   0.72080   0.72587   0.73466   0.74427
 Alpha virt. eigenvalues --    0.75359   0.75673   0.76499   0.77420   0.77565
 Alpha virt. eigenvalues --    0.77984   0.79865   0.81686   0.82275   0.83057
 Alpha virt. eigenvalues --    0.84267   0.85670   0.86945   0.90749   0.93333
 Alpha virt. eigenvalues --    0.97164   0.97606   1.00937   1.05893   1.10516
 Alpha virt. eigenvalues --    1.11668   1.13334   1.16093   1.17589   1.21877
 Alpha virt. eigenvalues --    1.22249   1.25443   1.29955   1.33438   1.33706
 Alpha virt. eigenvalues --    1.36299   1.40640   1.42247   1.48872   1.51970
 Alpha virt. eigenvalues --    1.51991   1.53487   1.54392   1.54709   1.54857
 Alpha virt. eigenvalues --    1.56596   1.68468   1.70352   1.75671   1.82438
 Alpha virt. eigenvalues --    1.83643   1.86453   1.87385   1.90936   1.93016
 Alpha virt. eigenvalues --    1.97794   1.99513   2.00558   2.02950   2.07280
 Alpha virt. eigenvalues --    2.08692   2.09346   2.15372   2.15596   2.17868
 Alpha virt. eigenvalues --    2.21793   2.22655   2.25154   2.30231   2.32703
 Alpha virt. eigenvalues --    2.34923   2.35194   2.37470   2.43443   2.49404
 Alpha virt. eigenvalues --    2.52211   2.55745   2.58931   2.59795   2.66056
 Alpha virt. eigenvalues --    2.70985   2.73666   2.76158   2.77476   2.78255
 Alpha virt. eigenvalues --    2.79070   2.84522   2.84803   2.88685   2.89615
 Alpha virt. eigenvalues --    2.95906   3.21068   3.23489   3.26558   3.28033
 Alpha virt. eigenvalues --    3.40660   3.47748   3.68248   3.71490   3.75478
          Condensed to atoms (all electrons):
               1          2          3          4          5          6
     1  C    4.790218   0.254794  -0.021947   0.009430   0.011489  -0.000163
     2  N    0.254794   7.018636   0.309667  -0.097975  -0.137188   0.007555
     3  C   -0.021947   0.309667   4.601009   0.795657   0.185636  -0.072623
     4  O    0.009430  -0.097975   0.795657   7.604892  -0.097260   0.008093
     5  C    0.011489  -0.137188   0.185636  -0.097260   5.579622   0.314398
     6  C   -0.000163   0.007555  -0.072623   0.008093   0.314398   5.242593
     7  C    0.000004  -0.000055   0.013855   0.000442   0.098725   0.261965
     8  C    0.000005  -0.000026  -0.001286  -0.000015  -0.143198   0.090601
     9  C   -0.000079   0.007153   0.015401  -0.000046   0.021419  -0.117569
    10  C    0.010068  -0.149461  -0.029865   0.002177   0.271211   0.020842
    11  C   -0.028777   0.325178  -0.079758  -0.000429  -0.041752   0.015436
    12  O   -0.004998  -0.093058  -0.000508  -0.000013   0.002402  -0.000030
    13  H    0.396912  -0.026159  -0.002988   0.001973   0.000850   0.000006
    14  H    0.396885  -0.026148  -0.002988   0.001982   0.000853   0.000006
    15  H    0.381893  -0.026542   0.004372   0.000190  -0.000605   0.000012
    16  H   -0.000019   0.000458  -0.008053   0.003908  -0.069146   0.442457
    17  H   -0.000000   0.000001  -0.000214  -0.000001   0.011823  -0.063686
    18  H   -0.000000   0.000001   0.000026  -0.000000  -0.001376   0.010636
    19  H   -0.000006   0.000439  -0.000260   0.000001   0.012177  -0.001517
               7          8          9         10         11         12
     1  C    0.000004   0.000005  -0.000079   0.010068  -0.028777  -0.004998
     2  N   -0.000055  -0.000026   0.007153  -0.149461   0.325178  -0.093058
     3  C    0.013855  -0.001286   0.015401  -0.029865  -0.079758  -0.000508
     4  O    0.000442  -0.000015  -0.000046   0.002177  -0.000429  -0.000013
     5  C    0.098725  -0.143198   0.021419   0.271211  -0.041752   0.002402
     6  C    0.261965   0.090601  -0.117569   0.020842   0.015436  -0.000030
     7  C    5.155505   0.283895   0.090924  -0.143517  -0.001268  -0.000017
     8  C    0.283895   5.155189   0.262408   0.098147   0.013731   0.000471
     9  C    0.090924   0.262408   5.240540   0.315498  -0.072080   0.008049
    10  C   -0.143517   0.098147   0.315498   5.626290   0.156285  -0.101723
    11  C   -0.001268   0.013731  -0.072080   0.156285   4.624021   0.796618
    12  O   -0.000017   0.000471   0.008049  -0.101723   0.796618   7.598190
    13  H   -0.000001   0.000000   0.000006  -0.000517   0.001858   0.000105
    14  H   -0.000001   0.000000   0.000006  -0.000518   0.001863   0.000104
    15  H    0.000001  -0.000002  -0.000016   0.004197  -0.003580   0.017493
    16  H   -0.060266   0.010214  -0.001574   0.012135  -0.000194   0.000001
    17  H    0.437277  -0.060832   0.010603  -0.001364   0.000028  -0.000000
    18  H   -0.060872   0.437434  -0.063833   0.011873  -0.000212  -0.000001
    19  H    0.010179  -0.059932   0.441729  -0.069167  -0.007403   0.003946
              13         14         15         16         17         18
     1  C    0.396912   0.396885   0.381893  -0.000019  -0.000000  -0.000000
     2  N   -0.026159  -0.026148  -0.026542   0.000458   0.000001   0.000001
     3  C   -0.002988  -0.002988   0.004372  -0.008053  -0.000214   0.000026
     4  O    0.001973   0.001982   0.000190   0.003908  -0.000001  -0.000000
     5  C    0.000850   0.000853  -0.000605  -0.069146   0.011823  -0.001376
     6  C    0.000006   0.000006   0.000012   0.442457  -0.063686   0.010636
     7  C   -0.000001  -0.000001   0.000001  -0.060266   0.437277  -0.060872
     8  C    0.000000   0.000000  -0.000002   0.010214  -0.060832   0.437434
     9  C    0.000006   0.000006  -0.000016  -0.001574   0.010603  -0.063833
    10  C   -0.000517  -0.000518   0.004197   0.012135  -0.001364   0.011873
    11  C    0.001858   0.001863  -0.003580  -0.000194   0.000028  -0.000212
    12  O    0.000105   0.000104   0.017493   0.000001  -0.000000  -0.000001
    13  H    0.514959  -0.022936  -0.017313  -0.000001  -0.000000   0.000000
    14  H   -0.022936   0.514965  -0.017309  -0.000001  -0.000000   0.000000
    15  H   -0.017313  -0.017309   0.499694  -0.000001   0.000000  -0.000000
    16  H   -0.000001  -0.000001  -0.000001   0.555925  -0.007665  -0.000111
    17  H   -0.000000  -0.000000   0.000000  -0.007665   0.551276  -0.008748
    18  H    0.000000   0.000000  -0.000000  -0.000111  -0.008748   0.551222
    19  H   -0.000000  -0.000000  -0.000011   0.000018  -0.000110  -0.007690
              19
     1  C   -0.000006
     2  N    0.000439
     3  C   -0.000260
     4  O    0.000001
     5  C    0.012177
     6  C   -0.001517
     7  C    0.010179
     8  C   -0.059932
     9  C    0.441729
    10  C   -0.069167
    11  C   -0.007403
    12  O    0.003946
    13  H   -0.000000
    14  H   -0.000000
    15  H   -0.000011
    16  H    0.000018
    17  H   -0.000110
    18  H   -0.007690
    19  H    0.555271
 Mulliken charges:
               1
     1  C   -0.195707
     2  N   -0.367271
     3  C    0.294865
     4  O   -0.233007
     5  C   -0.020082
     6  C   -0.159011
     7  C   -0.086776
     8  C   -0.086803
     9  C   -0.158537
    10  C   -0.032591
    11  C    0.300435
    12  O   -0.227032
    13  H    0.153244
    14  H    0.153235
    15  H    0.157527
    16  H    0.121915
    17  H    0.131613
    18  H    0.131650
    19  H    0.122335
 Sum of Mulliken charges =  -0.00000
 Mulliken charges with hydrogens summed into heavy atoms:
               1
     1  C    0.268299
     2  N   -0.367271
     3  C    0.294865
     4  O   -0.233007
     5  C   -0.020082
     6  C   -0.037096
     7  C    0.044837
     8  C    0.044847
     9  C   -0.036202
    10  C   -0.032591
    11  C    0.300435
    12  O   -0.227032
 APT charges:
               1
     1  C   -1.222581
     2  N   -0.091876
     3  C   -0.702553
     4  O    0.547200
     5  C   -0.194359
     6  C   -0.637302
     7  C   -0.577974
     8  C   -0.578619
     9  C   -0.637409
    10  C   -0.196202
    11  C   -0.684416
    12  O    0.543307
    13  H    0.526299
    14  H    0.526629
    15  H    0.524616
    16  H    0.586124
    17  H    0.841080
    18  H    0.841341
    19  H    0.586697
 Sum of APT charges =  -0.00000
 APT charges with hydrogens summed into heavy atoms:
               1
     1  C    0.354962
     2  N   -0.091876
     3  C   -0.702553
     4  O    0.547200
     5  C   -0.194359
     6  C   -0.051178
     7  C    0.263106
     8  C    0.262722
     9  C   -0.050712
    10  C   -0.196202
    11  C   -0.684416
    12  O    0.543307
 Electronic spatial extent (au):  <R**2>=           1872.3148
 Charge=             -0.0000 electrons
 Dipole moment (field-independent basis, Debye):
    X=              2.9442    Y=             -0.2135    Z=             -0.1962  Tot=              2.9585
 Quadrupole moment (field-independent basis, Debye-Ang):
   XX=            -53.8728   YY=            -77.7924   ZZ=            -69.4623
   XY=             -2.3257   XZ=             -1.3455   YZ=             -2.4903
 Traceless Quadrupole moment (field-independent basis, Debye-Ang):
   XX=             13.1697   YY=            -10.7499   ZZ=             -2.4198
   XY=             -2.3257   XZ=             -1.3455   YZ=             -2.4903
 Octapole moment (field-independent basis, Debye-Ang**2):
  XXX=             16.2428  YYY=             -8.8355  ZZZ=              0.2698  XYY=             35.4243
  XXY=              6.8282  XXZ=              0.5365  XZZ=             -4.0165  YZZ=             -1.8769
  YYZ=             -4.1460  XYZ=             12.0820
 Hexadecapole moment (field-independent basis, Debye-Ang**3):
 XXXX=          -1365.0900 YYYY=           -761.9814 ZZZZ=           -132.5989 XXXY=              8.3102
 XXXZ=             25.1475 YYYX=             24.2647 YYYZ=           -108.2639 ZZZX=             46.6390
 ZZZY=            -94.2971 XXYY=           -388.7796 XXZZ=           -295.6051 YYZZ=           -144.0880
 XXYZ=            -28.3658 YYXZ=             11.1398 ZZXY=             11.6984
 N-N= 6.564199486578D+02 E-N=-2.597192459857D+03  KE= 5.466500624859D+02
  Exact polarizability:   0.000   0.000   0.000   0.000   0.000   0.000
 Approx polarizability: 135.432   3.292 144.584  -2.462  24.206  67.318
 No NMR shielding tensors so no spin-rotation constants.
 Leave Link  601 at Wed Feb 28 19:50:57 2024, MaxMem=  2147483648 cpu:               4.8 elap:               0.2
 (Enter /software/gaussian-16RevA.03-el7-x86_64/g16/l716.exe)
 Dipole        = 1.15833873D+00-8.40169484D-02-7.71923123D-02
 Polarizability= 0.00000000D+00 0.00000000D+00 0.00000000D+00
                 0.00000000D+00 0.00000000D+00 0.00000000D+00
 -------------------------------------------------------------------
 Center     Atomic                   Forces (Hartrees/Bohr)
 Number     Number              X              Y              Z
 -------------------------------------------------------------------
      1        6          -0.000001128   -0.000008766   -0.000001489
      2        7           0.000000198    0.000000940    0.000001153
      3        6          -0.000001036    0.000000556    0.000000616
      4        8          -0.000000115    0.000000289    0.000000831
      5        6           0.000001491    0.000000512    0.000000201
      6        6           0.000000937    0.000000738    0.000000470
      7        6           0.000000474    0.000001358    0.000000260
      8        6          -0.000000276    0.000001717   -0.000000070
      9        6          -0.000000595    0.000001230   -0.000000310
     10        6           0.000000244    0.000000238   -0.000000252
     11        6          -0.000000931    0.000001011   -0.000000271
     12        8          -0.000000164   -0.000000104   -0.000000206
     13        1          -0.000001912   -0.000002555   -0.000000088
     14        1          -0.000001245   -0.000001366    0.000000052
     15        1           0.000003631   -0.000001740   -0.000001236
     16        1           0.000001447    0.000000649    0.000000791
     17        1           0.000000836    0.000001927    0.000000464
     18        1          -0.000000541    0.000002233   -0.000000236
     19        1          -0.000001314    0.000001133   -0.000000678
 -------------------------------------------------------------------
 Cartesian Forces:  Max     0.000008766 RMS     0.000001604
 Leave Link  716 at Wed Feb 28 19:50:57 2024, MaxMem=  2147483648 cpu:               0.8 elap:               0.0
 (Enter /software/gaussian-16RevA.03-el7-x86_64/g16/l9999.exe)
 1\1\GINC-MIDWAY2-0621\FOpt\RwB97XD\def2SVPP\C9H7N1O2\ALESSANDRI\28-Feb
 -2024\0\\#P wB97XD/Def2SVPP opt=(MaxCycles=500, RecalcFC=50) freq scrf
 =(pcm,solvent=n,n-DiMethylFormamide) nosymm int(grid=ultrafine) scf=(x
 qc,tight)\\Cavity NMPHTH solvent\\0,1\C,-3.1881409381,0.2554554591,0.2
 178600742\N,-1.7507543661,0.1474115806,0.1222105765\C,-1.0936493688,-1
 .0248196813,-0.2459395198\O,-1.6387647763,-2.0651812332,-0.5216482882\
 C,0.365285606,-0.7022145254,-0.2189713255\C,1.4666734587,-1.4952650267
 ,-0.4979615598\C,2.7308704813,-0.9020034361,-0.3841994056\C,2.86887090
 21,0.4372643966,-0.0038211164\C,1.7472969528,1.2291056337,0.2757307658
 \C,0.5027181455,0.6311969289,0.159630026\C,-0.8641410122,1.1928545148,
 0.3837836344\O,-1.1774282927,2.3080465349,0.7199764006\H,-3.6566716568
 ,0.0455948472,-0.7568221963\H,-3.5795042463,-0.4525943918,0.9655473544
 \H,-3.4284775482,1.2827882439,0.5256984523\H,1.3528880078,-2.540748678
 8,-0.7945584042\H,3.6252518872,-1.493986446,-0.5958756137\H,3.86896314
 38,0.8714903582,0.0761249498\H,1.8487136201,2.2756039214,0.5732361957\
 \Version=ES64L-G16RevA.03\HF=-551.8222807\RMSD=7.317e-09\RMSF=1.604e-0
 6\Dipole=1.1583387,-0.0840169,-0.0771923\Polar=0.,0.,0.,0.,0.,0.\Quadr
 upole=9.7913596,-7.9922755,-1.7990841,-1.729133,-1.0003616,-1.8514462\
 PG=C01 [X(C9H7N1O2)]\\@


 SLITHERY-DITHERY
 FRIEDRICH A. KEKULE
 DREAMT ON A BUS OF THINGS
 FREUD WOULD THINK KEEN.
 MOST OF THE TIME THEY WERE
 HERPETOLOGICAL
 BITING THEIR TAILS IN THE
 SHAPE OF BENZENE.
 Leave Link 9999 at Wed Feb 28 19:50:58 2024, MaxMem=  2147483648 cpu:               2.9 elap:               0.2
 Job cpu time:       0 days  1 hours  3 minutes 29.3 seconds.
 Elapsed time:       0 days  0 hours  2 minutes 24.5 seconds.
 File lengths (MBytes):  RWF=    408 Int=      0 D2E=      0 Chk=     16 Scr=      8
 Normal termination of Gaussian 16 at Wed Feb 28 19:50:58 2024.
 (Enter /software/gaussian-16RevA.03-el7-x86_64/g16/l1.exe)
 Link1:  Proceeding to internal job step number  2.
 ---------------------------------------------------------------------
 #P Geom=AllCheck Guess=TCheck SCRF=Check GenChk RwB97XD/def2SVPP Freq
 ---------------------------------------------------------------------
 1/6=500,10=4,29=7,30=1,38=1,40=1,71=50/1,3;
 2/12=2,15=1,40=1/2;
 3/5=43,7=202,11=2,14=-4,25=1,30=1,70=2,71=2,74=-58,75=-5,116=1,140=1/1,2,3;
 4/5=101/1;
 5/5=2,8=3,13=1,32=2,38=6,98=1/2,8;
 8/6=4,10=90,11=11/1;
 11/6=1,8=1,9=11,15=111,16=1,31=1/1,2,10;
 10/6=1,31=1/2;
 6/7=2,8=2,9=2,10=2,28=1/1;
 7/8=1,10=1,25=1,30=1/1,2,3,16;
 1/6=500,10=4,30=1,71=50/3;
 99//99;
 Leave Link    1 at Wed Feb 28 19:50:58 2024, MaxMem=  2147483648 cpu:               0.8 elap:               0.0
 (Enter /software/gaussian-16RevA.03-el7-x86_64/g16/l101.exe)
 Structure from the checkpoint file:  "NMPHTH-cavity-in-DMF-wB97XD.chk"
 ---------------------
 Cavity NMPHTH solvent
 ---------------------
 Charge =  0 Multiplicity = 1
 Redundant internal coordinates found in file.  (old form).
 C,0,-3.1881409381,0.2554554591,0.2178600742
 N,0,-1.7507543661,0.1474115806,0.1222105765
 C,0,-1.0936493688,-1.0248196813,-0.2459395198
 O,0,-1.6387647763,-2.0651812332,-0.5216482882
 C,0,0.365285606,-0.7022145254,-0.2189713255
 C,0,1.4666734587,-1.4952650267,-0.4979615598
 C,0,2.7308704813,-0.9020034361,-0.3841994056
 C,0,2.8688709021,0.4372643966,-0.0038211164
 C,0,1.7472969528,1.2291056337,0.2757307658
 C,0,0.5027181455,0.6311969289,0.159630026
 C,0,-0.8641410122,1.1928545148,0.3837836344
 O,0,-1.1774282927,2.3080465349,0.7199764006
 H,0,-3.6566716568,0.0455948472,-0.7568221963
 H,0,-3.5795042463,-0.4525943918,0.9655473544
 H,0,-3.4284775482,1.2827882439,0.5256984523
 H,0,1.3528880078,-2.5407486788,-0.7945584042
 H,0,3.6252518872,-1.493986446,-0.5958756137
 H,0,3.8689631438,0.8714903582,0.0761249498
 H,0,1.8487136201,2.2756039214,0.5732361957
 Recover connectivity data from disk.
 ITRead=  0  0  0  0  0  0  0  0  0  0  0  0  0  0  0  0  0  0  0
 MicOpt= -1 -1 -1 -1 -1 -1 -1 -1 -1 -1 -1 -1 -1 -1 -1 -1 -1 -1 -1
 NAtoms=     19 NQM=       19 NQMF=       0 NMMI=      0 NMMIF=      0
                NMic=       0 NMicF=      0.
                    Isotopes and Nuclear Properties:
 (Nuclear quadrupole moments (NQMom) in fm**2, nuclear magnetic moments (NMagM)
  in nuclear magnetons)

  Atom         1           2           3           4           5           6           7           8           9          10
 IAtWgt=          12          14          12          16          12          12          12          12          12          12
 AtmWgt=  12.0000000  14.0030740  12.0000000  15.9949146  12.0000000  12.0000000  12.0000000  12.0000000  12.0000000  12.0000000
 NucSpn=           0           2           0           0           0           0           0           0           0           0
 AtZEff=   3.6000000   4.5500000   3.6000000   5.6000000   3.6000000   3.6000000   3.6000000   3.6000000   3.6000000   3.6000000
 NQMom=    0.0000000   2.0440000   0.0000000   0.0000000   0.0000000   0.0000000   0.0000000   0.0000000   0.0000000   0.0000000
 NMagM=    0.0000000   0.4037610   0.0000000   0.0000000   0.0000000   0.0000000   0.0000000   0.0000000   0.0000000   0.0000000
 AtZNuc=   6.0000000   7.0000000   6.0000000   8.0000000   6.0000000   6.0000000   6.0000000   6.0000000   6.0000000   6.0000000

  Atom        11          12          13          14          15          16          17          18          19
 IAtWgt=          12          16           1           1           1           1           1           1           1
 AtmWgt=  12.0000000  15.9949146   1.0078250   1.0078250   1.0078250   1.0078250   1.0078250   1.0078250   1.0078250
 NucSpn=           0           0           1           1           1           1           1           1           1
 AtZEff=   3.6000000   5.6000000   1.0000000   1.0000000   1.0000000   1.0000000   1.0000000   1.0000000   1.0000000
 NQMom=    0.0000000   0.0000000   0.0000000   0.0000000   0.0000000   0.0000000   0.0000000   0.0000000   0.0000000
 NMagM=    0.0000000   0.0000000   2.7928460   2.7928460   2.7928460   2.7928460   2.7928460   2.7928460   2.7928460
 AtZNuc=   6.0000000   8.0000000   1.0000000   1.0000000   1.0000000   1.0000000   1.0000000   1.0000000   1.0000000
 Leave Link  101 at Wed Feb 28 19:50:58 2024, MaxMem=  2147483648 cpu:               9.6 elap:               0.4
 (Enter /software/gaussian-16RevA.03-el7-x86_64/g16/l103.exe)

 GradGradGradGradGradGradGradGradGradGradGradGradGradGradGradGradGradGrad
 Berny optimization.
 Initialization pass.
                           ----------------------------
                           !    Initial Parameters    !
                           ! (Angstroms and Degrees)  !
 --------------------------                            --------------------------
 ! Name  Definition              Value          Derivative Info.                !
 --------------------------------------------------------------------------------
 ! R1    R(1,2)                  1.4446         calculate D2E/DX2 analytically  !
 ! R2    R(1,13)                 1.1016         calculate D2E/DX2 analytically  !
 ! R3    R(1,14)                 1.1016         calculate D2E/DX2 analytically  !
 ! R4    R(1,15)                 1.0991         calculate D2E/DX2 analytically  !
 ! R5    R(2,3)                  1.3934         calculate D2E/DX2 analytically  !
 ! R6    R(2,11)                 1.3955         calculate D2E/DX2 analytically  !
 ! R7    R(3,4)                  1.2064         calculate D2E/DX2 analytically  !
 ! R8    R(3,5)                  1.4944         calculate D2E/DX2 analytically  !
 ! R9    R(5,6)                  1.3856         calculate D2E/DX2 analytically  !
 ! R10   R(5,10)                 1.3929         calculate D2E/DX2 analytically  !
 ! R11   R(6,7)                  1.4011         calculate D2E/DX2 analytically  !
 ! R12   R(6,16)                 1.0927         calculate D2E/DX2 analytically  !
 ! R13   R(7,8)                  1.3991         calculate D2E/DX2 analytically  !
 ! R14   R(7,17)                 1.0932         calculate D2E/DX2 analytically  !
 ! R15   R(8,9)                  1.4011         calculate D2E/DX2 analytically  !
 ! R16   R(8,18)                 1.0932         calculate D2E/DX2 analytically  !
 ! R17   R(9,10)                 1.3856         calculate D2E/DX2 analytically  !
 ! R18   R(9,19)                 1.0927         calculate D2E/DX2 analytically  !
 ! R19   R(10,11)                1.4947         calculate D2E/DX2 analytically  !
 ! R20   R(11,12)                1.2062         calculate D2E/DX2 analytically  !
 ! A1    A(2,1,13)             110.509          calculate D2E/DX2 analytically  !
 ! A2    A(2,1,14)             110.5092         calculate D2E/DX2 analytically  !
 ! A3    A(2,1,15)             107.8205         calculate D2E/DX2 analytically  !
 ! A4    A(13,1,14)            109.0852         calculate D2E/DX2 analytically  !
 ! A5    A(13,1,15)            109.4438         calculate D2E/DX2 analytically  !
 ! A6    A(14,1,15)            109.4511         calculate D2E/DX2 analytically  !
 ! A7    A(1,2,3)              123.3434         calculate D2E/DX2 analytically  !
 ! A8    A(1,2,11)             124.3131         calculate D2E/DX2 analytically  !
 ! A9    A(3,2,11)             112.3436         calculate D2E/DX2 analytically  !
 ! A10   A(2,3,4)              124.9442         calculate D2E/DX2 analytically  !
 ! A11   A(2,3,5)              105.9035         calculate D2E/DX2 analytically  !
 ! A12   A(4,3,5)              129.1523         calculate D2E/DX2 analytically  !
 ! A13   A(3,5,6)              130.4534         calculate D2E/DX2 analytically  !
 ! A14   A(3,5,10)             107.9314         calculate D2E/DX2 analytically  !
 ! A15   A(6,5,10)             121.6152         calculate D2E/DX2 analytically  !
 ! A16   A(5,6,7)              117.2918         calculate D2E/DX2 analytically  !
 ! A17   A(5,6,16)             121.2999         calculate D2E/DX2 analytically  !
 ! A18   A(7,6,16)             121.4083         calculate D2E/DX2 analytically  !
 ! A19   A(6,7,8)              121.0913         calculate D2E/DX2 analytically  !
 ! A20   A(6,7,17)             119.5485         calculate D2E/DX2 analytically  !
 ! A21   A(8,7,17)             119.3603         calculate D2E/DX2 analytically  !
 ! A22   A(7,8,9)              121.0837         calculate D2E/DX2 analytically  !
 ! A23   A(7,8,18)             119.363          calculate D2E/DX2 analytically  !
 ! A24   A(9,8,18)             119.5533         calculate D2E/DX2 analytically  !
 ! A25   A(8,9,10)             117.2854         calculate D2E/DX2 analytically  !
 ! A26   A(8,9,19)             121.4192         calculate D2E/DX2 analytically  !
 ! A27   A(10,9,19)            121.2954         calculate D2E/DX2 analytically  !
 ! A28   A(5,10,9)             121.6327         calculate D2E/DX2 analytically  !
 ! A29   A(5,10,11)            108.0747         calculate D2E/DX2 analytically  !
 ! A30   A(9,10,11)            130.2926         calculate D2E/DX2 analytically  !
 ! A31   A(2,11,10)            105.7468         calculate D2E/DX2 analytically  !
 ! A32   A(2,11,12)            125.4413         calculate D2E/DX2 analytically  !
 ! A33   A(10,11,12)           128.8119         calculate D2E/DX2 analytically  !
 ! D1    D(13,1,2,3)           -60.4372         calculate D2E/DX2 analytically  !
 ! D2    D(13,1,2,11)          119.5273         calculate D2E/DX2 analytically  !
 ! D3    D(14,1,2,3)            60.4033         calculate D2E/DX2 analytically  !
 ! D4    D(14,1,2,11)         -119.6322         calculate D2E/DX2 analytically  !
 ! D5    D(15,1,2,3)           179.9876         calculate D2E/DX2 analytically  !
 ! D6    D(15,1,2,11)           -0.048          calculate D2E/DX2 analytically  !
 ! D7    D(1,2,3,4)             -0.025          calculate D2E/DX2 analytically  !
 ! D8    D(1,2,3,5)            179.9677         calculate D2E/DX2 analytically  !
 ! D9    D(11,2,3,4)          -179.9932         calculate D2E/DX2 analytically  !
 ! D10   D(11,2,3,5)            -0.0006         calculate D2E/DX2 analytically  !
 ! D11   D(1,2,11,10)         -179.9652         calculate D2E/DX2 analytically  !
 ! D12   D(1,2,11,12)            0.0373         calculate D2E/DX2 analytically  !
 ! D13   D(3,2,11,10)            0.0027         calculate D2E/DX2 analytically  !
 ! D14   D(3,2,11,12)         -179.9948         calculate D2E/DX2 analytically  !
 ! D15   D(2,3,5,6)           -179.9925         calculate D2E/DX2 analytically  !
 ! D16   D(2,3,5,10)            -0.002          calculate D2E/DX2 analytically  !
 ! D17   D(4,3,5,6)             -0.0002         calculate D2E/DX2 analytically  !
 ! D18   D(4,3,5,10)           179.9903         calculate D2E/DX2 analytically  !
 ! D19   D(3,5,6,7)            179.9911         calculate D2E/DX2 analytically  !
 ! D20   D(3,5,6,16)            -0.0093         calculate D2E/DX2 analytically  !
 ! D21   D(10,5,6,7)             0.0016         calculate D2E/DX2 analytically  !
 ! D22   D(10,5,6,16)         -179.9987         calculate D2E/DX2 analytically  !
 ! D23   D(3,5,10,9)          -179.9982         calculate D2E/DX2 analytically  !
 ! D24   D(3,5,10,11)            0.0035         calculate D2E/DX2 analytically  !
 ! D25   D(6,5,10,9)            -0.0066         calculate D2E/DX2 analytically  !
 ! D26   D(6,5,10,11)          179.9951         calculate D2E/DX2 analytically  !
 ! D27   D(5,6,7,8)              0.0035         calculate D2E/DX2 analytically  !
 ! D28   D(5,6,7,17)          -179.9921         calculate D2E/DX2 analytically  !
 ! D29   D(16,6,7,8)          -179.9961         calculate D2E/DX2 analytically  !
 ! D30   D(16,6,7,17)            0.0082         calculate D2E/DX2 analytically  !
 ! D31   D(6,7,8,9)             -0.004          calculate D2E/DX2 analytically  !
 ! D32   D(6,7,8,18)           179.9952         calculate D2E/DX2 analytically  !
 ! D33   D(17,7,8,9)           179.9917         calculate D2E/DX2 analytically  !
 ! D34   D(17,7,8,18)           -0.0091         calculate D2E/DX2 analytically  !
 ! D35   D(7,8,9,10)            -0.0008         calculate D2E/DX2 analytically  !
 ! D36   D(7,8,9,19)          -179.9993         calculate D2E/DX2 analytically  !
 ! D37   D(18,8,9,10)          180.0            calculate D2E/DX2 analytically  !
 ! D38   D(18,8,9,19)            0.0015         calculate D2E/DX2 analytically  !
 ! D39   D(8,9,10,5)             0.006          calculate D2E/DX2 analytically  !
 ! D40   D(8,9,10,11)         -179.9961         calculate D2E/DX2 analytically  !
 ! D41   D(19,9,10,5)         -179.9955         calculate D2E/DX2 analytically  !
 ! D42   D(19,9,10,11)           0.0024         calculate D2E/DX2 analytically  !
 ! D43   D(5,10,11,2)           -0.0039         calculate D2E/DX2 analytically  !
 ! D44   D(5,10,11,12)         179.9935         calculate D2E/DX2 analytically  !
 ! D45   D(9,10,11,2)          179.9981         calculate D2E/DX2 analytically  !
 ! D46   D(9,10,11,12)          -0.0046         calculate D2E/DX2 analytically  !
 --------------------------------------------------------------------------------
 Trust Radius=3.00D-01 FncErr=1.00D-07 GrdErr=1.00D-07 EigMax=2.50D+02 EigMin=1.00D-04
 Number of steps in this run=      2 maximum allowed number of steps=      2.
 Step   0 in ReCalcFC=50 IGetFC= 4 compute analytic Hessian.
 GradGradGradGradGradGradGradGradGradGradGradGradGradGradGradGradGradGrad

 Leave Link  103 at Wed Feb 28 19:50:58 2024, MaxMem=  2147483648 cpu:               1.2 elap:               0.1
 (Enter /software/gaussian-16RevA.03-el7-x86_64/g16/l202.exe)
                          Input orientation:                          
 ---------------------------------------------------------------------
 Center     Atomic      Atomic             Coordinates (Angstroms)
 Number     Number       Type             X           Y           Z
 ---------------------------------------------------------------------
      1          6           0       -3.188141    0.255455    0.217860
      2          7           0       -1.750754    0.147412    0.122211
      3          6           0       -1.093649   -1.024820   -0.245940
      4          8           0       -1.638765   -2.065181   -0.521648
      5          6           0        0.365286   -0.702215   -0.218971
      6          6           0        1.466673   -1.495265   -0.497962
      7          6           0        2.730870   -0.902003   -0.384199
      8          6           0        2.868871    0.437264   -0.003821
      9          6           0        1.747297    1.229106    0.275731
     10          6           0        0.502718    0.631197    0.159630
     11          6           0       -0.864141    1.192855    0.383784
     12          8           0       -1.177428    2.308047    0.719976
     13          1           0       -3.656672    0.045595   -0.756822
     14          1           0       -3.579504   -0.452594    0.965547
     15          1           0       -3.428478    1.282788    0.525698
     16          1           0        1.352888   -2.540749   -0.794558
     17          1           0        3.625252   -1.493986   -0.595876
     18          1           0        3.868963    0.871490    0.076125
     19          1           0        1.848714    2.275604    0.573236
 ---------------------------------------------------------------------
                    Distance matrix (angstroms):
                    1          2          3          4          5
     1  C    0.000000
     2  N    1.444612   0.000000
     3  C    2.498221   1.393358   0.000000
     4  O    2.886658   2.307090   1.206449   0.000000
     5  C    3.706048   2.305622   1.494421   2.442439   0.000000
     6  C    5.024412   3.665357   2.615356   3.157390   1.385576
     7  C    6.061096   4.630625   3.828988   4.523891   2.379750
     8  C    6.063793   4.630425   4.230588   5.181617   2.759102
     9  C    5.030894   3.664696   3.663782   4.790987   2.425837
    10  C    3.710393   2.305122   2.335651   3.510063   1.392915
    11  C    2.511419   1.395512   2.316744   3.469099   2.337967
    12  O    2.916885   2.313951   3.471024   4.569418   3.510450
    13  H    1.101621   2.101330   2.824159   2.929613   4.126093
    14  H    1.101606   2.101321   2.823936   2.928934   4.126350
    15  H    1.099063   2.065584   3.372225   3.938135   4.345965
    16  H    5.428139   4.207050   2.929943   3.041485   2.164917
    17  H    7.081316   5.666681   4.755061   5.295436   3.375847
    18  H    7.085359   5.666360   5.322334   6.270282   3.852192
    19  H    5.438492   4.205805   4.496815   5.674830   3.419876
                    6          7          8          9         10
     6  C    0.000000
     7  C    1.401105   0.000000
     8  C    2.438238   1.399060   0.000000
     9  C    2.845970   2.438145   1.401103   0.000000
    10  C    2.425588   2.758825   2.379707   1.385623   0.000000
    11  C    3.665536   4.231115   3.828385   2.613924   1.494660
    12  O    4.789554   5.176719   4.516220   3.148886   2.438997
    13  H    5.356298   6.468190   6.580511   5.627587   4.299225
    14  H    5.356578   6.468741   6.581266   5.628390   4.299843
    15  H    5.720836   6.598394   6.375884   5.182085   4.001609
    16  H    1.092682   2.180073   3.433953   3.938639   3.419723
    17  H    2.160798   1.093238   2.156935   3.420766   3.851936
    18  H    3.420834   2.156950   1.093219   2.160833   3.375844
    19  H    3.938638   3.433959   2.180185   1.092682   2.164913
                   11         12         13         14         15
    11  C    0.000000
    12  O    1.206162   0.000000
    13  H    3.227292   3.666916   0.000000
    14  H    3.227871   3.667617   1.794632   0.000000
    15  H    2.569835   2.481153   1.796546   1.796616   0.000000
    16  H    4.499278   5.675133   5.637933   5.637983   6.262904
    17  H    5.322922   6.265194   7.444637   7.445203   7.663126
    18  H    4.753967   5.286237   7.616501   7.617345   7.322836
    19  H    2.927084   3.029871   6.086975   6.087900   5.369980
                   16         17         18         19
    16  H    0.000000
    17  H    2.509746   0.000000
    18  H    4.328059   2.471125   0.000000
    19  H    5.031298   4.328131   2.509993   0.000000
 Symmetry turned off by external request.
 Stoichiometry    C9H7NO2
 Framework group  C1[X(C9H7NO2)]
 Deg. of freedom    51
 Full point group                 C1      NOp   1
 Rotational constants (GHZ):           1.7411706           0.8645458           0.5798512
 Leave Link  202 at Wed Feb 28 19:50:58 2024, MaxMem=  2147483648 cpu:               0.4 elap:               0.0
 (Enter /software/gaussian-16RevA.03-el7-x86_64/g16/l301.exe)
 Standard basis: def2SVPP (5D, 7F)
 Ernie: Thresh=  0.10000D-02 Tol=  0.10000D-05 Strict=F.
   182 basis functions,   328 primitive gaussians,   194 cartesian basis functions
    42 alpha electrons       42 beta electrons
       nuclear repulsion energy       656.4299637923 Hartrees.
 IExCor= 4639 DFT=T Ex+Corr=wB97XD ExCW=0 ScaHFX=  1.000000
 ScaDFX=  1.000000  1.000000  1.000000  1.000000 ScalE2=  1.000000  1.000000
 IRadAn=      5 IRanWt=     -1 IRanGd=            0 ICorTp=0 IEmpDi=121
 HFx  wShort=  0.000000 wLong=  0.200000 cFull=  0.222036 cShort=  0.000000 cLong=  0.777964
 DFx  wShort=  0.000000 wLong=  0.200000 cFull=  0.000000 cShort=  0.000000 cLong=  1.000000
 NAtoms=   19 NActive=   19 NUniq=   19 SFac= 1.00D+00 NAtFMM=   60 NAOKFM=F Big=F
 Integral buffers will be    131072 words long.
 Raffenetti 2 integral format.
 Two-electron integral symmetry is turned off.
 R6Disp:  Grimme-D2 Dispersion energy=       -0.0100151345 Hartrees.
 Nuclear repulsion after empirical dispersion term =      656.4199486578 Hartrees.
 Force inversion solution in PCM.
 ------------------------------------------------------------------------------
 Polarizable Continuum Model (PCM)
 =================================
 Model                : PCM.
 Atomic radii         : UFF (Universal Force Field).
 Polarization charges : Total charges.
 Charge compensation  : None.
 Solution method      : Matrix inversion.
 Cavity type          : Scaled VdW (van der Waals Surface) (Alpha=1.100).
 Cavity algorithm     : GePol (No added spheres)
                        Default sphere list used, NSphG=   19.
                        Lebedev-Laikov grids with approx.  5.0 points / Ang**2.
                        Smoothing algorithm: York/Karplus (Gamma=1.0000).
                        Polarization charges: spherical gaussians, with
                                              point-specific exponents (IZeta= 3).
                        Self-potential: point-specific (ISelfS= 7).
                        Self-field    : sphere-specific E.n sum rule (ISelfD= 2).
 1st derivatives      : Analytical E(r).r(x)/FMM algorithm (CHGder, D1EAlg=3).
                        Cavity 1st derivative terms included.
 2nd derivatives      : Analytical E(r).r(xy)/FMM algorithm (CHGder, D2EAlg=3).
                        Cavity 2nd derivative terms included.
 Solvent              : n,n-DiMethylFormamide, Eps=  37.219000 Eps(inf)=   2.046330
 ------------------------------------------------------------------------------
 Spheres list:
 ISph  on   Nord     Re0    Alpha      Xe            Ye            Ze
    1   C      1    1.9255  1.100     -3.188141      0.255455      0.217860
    2   N      2    1.8300  1.100     -1.750754      0.147412      0.122211
    3   C      3    1.9255  1.100     -1.093649     -1.024820     -0.245940
    4   O      4    1.7500  1.100     -1.638765     -2.065181     -0.521648
    5   C      5    1.9255  1.100      0.365286     -0.702215     -0.218971
    6   C      6    1.9255  1.100      1.466673     -1.495265     -0.497962
    7   C      7    1.9255  1.100      2.730870     -0.902003     -0.384199
    8   C      8    1.9255  1.100      2.868871      0.437264     -0.003821
    9   C      9    1.9255  1.100      1.747297      1.229106      0.275731
   10   C     10    1.9255  1.100      0.502718      0.631197      0.159630
   11   C     11    1.9255  1.100     -0.864141      1.192855      0.383784
   12   O     12    1.7500  1.100     -1.177428      2.308047      0.719976
   13   H     13    1.4430  1.100     -3.656672      0.045595     -0.756822
   14   H     14    1.4430  1.100     -3.579504     -0.452594      0.965547
   15   H     15    1.4430  1.100     -3.428478      1.282788      0.525698
   16   H     16    1.4430  1.100      1.352888     -2.540749     -0.794558
   17   H     17    1.4430  1.100      3.625252     -1.493986     -0.595876
   18   H     18    1.4430  1.100      3.868963      0.871490      0.076125
   19   H     19    1.4430  1.100      1.848714      2.275604      0.573236
 ------------------------------------------------------------------------------
 GePol: Number of generator spheres                  =      19
 GePol: Total number of spheres                      =      19
 GePol: Number of exposed spheres                    =      19 (100.00%)
 GePol: Number of points                             =    1661
 GePol: Average weight of points                     =       0.13
 GePol: Minimum weight of points                     =   0.50D-09
 GePol: Maximum weight of points                     =    0.20577
 GePol: Number of points with low weight             =      98
 GePol: Fraction of low-weight points (<1% of avg)   =       5.90%
 GePol: Cavity surface area                          =    216.083 Ang**2
 GePol: Cavity volume                                =    219.190 Ang**3
 Leave Link  301 at Wed Feb 28 19:50:58 2024, MaxMem=  2147483648 cpu:               2.6 elap:               0.1
 (Enter /software/gaussian-16RevA.03-el7-x86_64/g16/l302.exe)
 NPDir=0 NMtPBC=     1 NCelOv=     1 NCel=       1 NClECP=     1 NCelD=      1
         NCelK=      1 NCelE2=     1 NClLst=     1 CellRange=     0.0.
 One-electron integrals computed using PRISM.
   1 Symmetry operations used in ECPInt.
 ECPInt:  NShTT=    3741 NPrTT=   15055 LenC2=    3665 LenP2D=   11026.
 LDataN:  DoStor=T MaxTD1= 4 Len=   56
 NBasis=   182 RedAO= T EigKep=  2.79D-04  NBF=   182
 NBsUse=   182 1.00D-06 EigRej= -1.00D+00 NBFU=   182
 Precomputing XC quadrature grid using
 IXCGrd= 4 IRadAn=           5 IRanWt=          -1 IRanGd=           0 AccXCQ= 0.00D+00.
 Generated NRdTot=       0 NPtTot=           0 NUsed=           0 NTot=          32
 NSgBfM=   193   193   193   193   193 MxSgAt=    19 MxSgA2=    19.
 Leave Link  302 at Wed Feb 28 19:50:59 2024, MaxMem=  2147483648 cpu:               7.0 elap:               0.3
 (Enter /software/gaussian-16RevA.03-el7-x86_64/g16/l303.exe)
 DipDrv:  MaxL=1.
 Leave Link  303 at Wed Feb 28 19:50:59 2024, MaxMem=  2147483648 cpu:               1.9 elap:               0.1
 (Enter /software/gaussian-16RevA.03-el7-x86_64/g16/l401.exe)
 Initial guess from the checkpoint file:  "NMPHTH-cavity-in-DMF-wB97XD.chk"
 B after Tr=     0.000000    0.000000    0.000000
         Rot=    1.000000    0.000000    0.000000    0.000000 Ang=   0.00 deg.
 Guess basis will be translated and rotated to current coordinates.
 JPrj=2 DoOrth=T DoCkMO=T.
 Leave Link  401 at Wed Feb 28 19:50:59 2024, MaxMem=  2147483648 cpu:               3.3 elap:               0.1
 (Enter /software/gaussian-16RevA.03-el7-x86_64/g16/l502.exe)
 Two-electron integral symmetry not used.
 Closed shell SCF:
 Using DIIS extrapolation, IDIIS=  1040.
 NGot=  2147483648 LenX=  2147401213 LenY=  2147363136
 Requested convergence on RMS density matrix=1.00D-08 within  32 cycles.
 Requested convergence on MAX density matrix=1.00D-06.
 Requested convergence on             energy=1.00D-06.
 No special actions if energy rises.
 Fock matrices will be formed incrementally for  20 cycles.

 Cycle   1  Pass 1  IDiag  1:
 FoFJK:  IHMeth= 1 ICntrl=       0 DoSepK=T KAlg= 0 I1Cent=           0 FoldK=F
 IRaf=         1 NMat=       1 IRICut=       1 DoRegI=T DoRafI=F ISym2E= 0 IDoP0=0 IntGTp=1.
 FoFCou: FMM=F IPFlag=           0 FMFlag=      100000 FMFlg1=           0
         NFxFlg=           0 DoJE=T BraDBF=F KetDBF=F FulRan=T
         wScrn=  0.000000 ICntrl=       500 IOpCl=  0 I1Cent=           0 NGrid=           0
         NMat0=    1 NMatS0=      1 NMatT0=    0 NMatD0=    1 NMtDS0=    0 NMtDT0=    0
 Symmetry not used in FoFCou.
 Inv3:  Mode=1 IEnd=     8276763.
 Iteration    1 A*A^-1 deviation from unit magnitude is 4.22D-15 for    202.
 Iteration    1 A*A^-1 deviation from orthogonality  is 1.67D-15 for   1543     49.
 Iteration    1 A^-1*A deviation from unit magnitude is 4.22D-15 for    202.
 Iteration    1 A^-1*A deviation from orthogonality  is 2.27D-15 for   1165    695.
 E= -551.822280672542    
 DIIS: error= 2.21D-08 at cycle   1 NSaved=   1.
 NSaved= 1 IEnMin= 1 EnMin= -551.822280672542     IErMin= 1 ErrMin= 2.21D-08
 ErrMax= 2.21D-08  0.00D+00 EMaxC= 1.00D-01 BMatC= 8.46D-14 BMatP= 8.46D-14
 IDIUse=1 WtCom= 1.00D+00 WtEn= 0.00D+00
 Coeff-Com:  0.100D+01
 Coeff:      0.100D+01
 Gap=     0.327 Goal=   None    Shift=    0.000
 RMSDP=3.80D-09 MaxDP=7.90D-08              OVMax= 1.58D-07

 Error on total polarization charges =  0.00723
 SCF Done:  E(RwB97XD) =  -551.822280673     A.U. after    1 cycles
            NFock=  1  Conv=0.38D-08     -V/T= 2.0095
 KE= 5.466500632025D+02 PE=-2.597192460574D+03 EE= 8.423001680407D+02
 Leave Link  502 at Wed Feb 28 19:51:01 2024, MaxMem=  2147483648 cpu:              61.5 elap:               2.5
 (Enter /software/gaussian-16RevA.03-el7-x86_64/g16/l508.exe)
 QCSCF skips out because SCF is already converged.
 Leave Link  508 at Wed Feb 28 19:51:02 2024, MaxMem=  2147483648 cpu:               0.2 elap:               0.0
 (Enter /software/gaussian-16RevA.03-el7-x86_64/g16/l801.exe)
 DoSCS=F DFT=T ScalE2(SS,OS)=  1.000000  1.000000
 Range of M.O.s used for correlation:     1   182
 NBasis=   182 NAE=    42 NBE=    42 NFC=     0 NFV=     0
 NROrb=    182 NOA=    42 NOB=    42 NVA=   140 NVB=   140

 **** Warning!!: The largest alpha MO coefficient is  0.16782654D+02

 Leave Link  801 at Wed Feb 28 19:51:02 2024, MaxMem=  2147483648 cpu:               1.2 elap:               0.1
 (Enter /software/gaussian-16RevA.03-el7-x86_64/g16/l1101.exe)
 Using compressed storage, NAtomX=    19.
 Will process     20 centers per pass.
   1 Symmetry operations used in ECPInt.
 ECPInt:  NShTT=    3741 NPrTT=   15055 LenC2=    3665 LenP2D=   11026.
 LDataN:  DoStor=T MaxTD1= 5 Len=  102
 R6Disp: Adding Grimme-D2 dispersion energy 1st derivatives to the gradient.
 Leave Link 1101 at Wed Feb 28 19:51:02 2024, MaxMem=  2147483648 cpu:               8.3 elap:               0.3
 (Enter /software/gaussian-16RevA.03-el7-x86_64/g16/l1102.exe)
 Symmetrizing basis deriv contribution to polar:
 IMax=3 JMax=2 DiffMx= 0.00D+00
 Leave Link 1102 at Wed Feb 28 19:51:02 2024, MaxMem=  2147483648 cpu:               0.9 elap:               0.1
 (Enter /software/gaussian-16RevA.03-el7-x86_64/g16/l1110.exe)
 Forming Gx(P) for the SCF density, NAtomX=    19.
 Integral derivatives from FoFJK, PRISM(SPDF).
 Do as many integral derivatives as possible in FoFJK.
 G2DrvN: MDV=    2147482144.
 G2DrvN: will do    20 centers at a time, making    1 passes.
 Calling FoFCou, ICntrl=  3107 FMM=F I1Cent=   0 AccDes= 0.00D+00.
 FoFJK:  IHMeth= 1 ICntrl=    3107 DoSepK=T KAlg= 0 I1Cent=           0 FoldK=F
 IRaf=         1 NMat=       1 IRICut=       1 DoRegI=T DoRafI=F ISym2E= 0 IDoP0=0 IntGTp=1.
 FoFCou: FMM=F IPFlag=           0 FMFlag=      100000 FMFlg1=           0
         NFxFlg=           0 DoJE=F BraDBF=F KetDBF=F FulRan=T
         wScrn=  0.000000 ICntrl=      3507 IOpCl=  0 I1Cent=           0 NGrid=           0
         NMat0=    1 NMatS0=      1 NMatT0=    0 NMatD0=    1 NMtDS0=    0 NMtDT0=    0
 Symmetry not used in FoFCou.
 NEqPCM:  Using equilibrium solvation (IEInf=0, Eps=  37.2190, EpsInf=   2.0463)
 G2PCM: DoFxE=T DoFxN=T DoGrad=T DoDP/DQ/DG/TGxP=FFFF NFrqRd=   0 IEInf=0 SqF1=F DoCFld=F IF1Alg=4.
 GePol: Maximum number of non-zero 1st derivatives   =     213
 End of G2Drv F.D. properties file   721 does not exist.
 End of G2Drv F.D. properties file   722 does not exist.
 End of G2Drv F.D. properties file   788 does not exist.
 Leave Link 1110 at Wed Feb 28 19:51:12 2024, MaxMem=  2147483648 cpu:             269.6 elap:               9.7
 (Enter /software/gaussian-16RevA.03-el7-x86_64/g16/l1002.exe)
 Minotr:  Closed shell wavefunction.
          IDoAtm=1111111111111111111
 NEqPCM:  Using equilibrium solvation (IEInf=0, Eps=  37.2190, EpsInf=   2.0463)
          Direct CPHF calculation.
          Differentiating once with respect to electric field.
                with respect to dipole field.
          Differentiating once with respect to nuclear coordinates.
          Requested convergence is 1.0D-08 RMS, and 1.0D-07 maximum.
          Secondary convergence is 1.0D-12 RMS, and 1.0D-12 maximum.
          NewPWx=T KeepS1=F KeepF1=F KeepIn=T MapXYZ=F SortEE=F KeepMc=T.
         5698 words used for storage of precomputed grid.
 Keep R1 ints in memory in canonical form, NReq=305852463.
 FoFCou: FMM=F IPFlag=           0 FMFlag=           0 FMFlg1=           0
         NFxFlg=           0 DoJE=F BraDBF=F KetDBF=F FulRan=T
         wScrn=  0.000000 ICntrl=       600 IOpCl=  0 I1Cent=           0 NGrid=           0
         NMat0=    1 NMatS0=  16653 NMatT0=    0 NMatD0=    1 NMtDS0=    0 NMtDT0=    0
 Symmetry not used in FoFCou.
 Two-electron integral symmetry not used.
          MDV=    2147483648 using IRadAn=       1.
          Solving linear equations simultaneously, MaxMat=       0.
          There are    60 degrees of freedom in the 1st order CPHF.  IDoFFX=6 NUNeed=     3.
     57 vectors produced by pass  0 Test12= 9.80D-15 1.67D-09 XBig12= 6.93D+01 5.04D+00.
 AX will form    57 AO Fock derivatives at one time.
     57 vectors produced by pass  1 Test12= 9.80D-15 1.67D-09 XBig12= 8.05D+00 4.09D-01.
     57 vectors produced by pass  2 Test12= 9.80D-15 1.67D-09 XBig12= 2.05D-01 1.13D-01.
     57 vectors produced by pass  3 Test12= 9.80D-15 1.67D-09 XBig12= 2.76D-03 1.08D-02.
     57 vectors produced by pass  4 Test12= 9.80D-15 1.67D-09 XBig12= 1.94D-05 7.12D-04.
     57 vectors produced by pass  5 Test12= 9.80D-15 1.67D-09 XBig12= 9.87D-08 4.45D-05.
     52 vectors produced by pass  6 Test12= 9.80D-15 1.67D-09 XBig12= 3.99D-10 2.79D-06.
     16 vectors produced by pass  7 Test12= 9.80D-15 1.67D-09 XBig12= 1.53D-12 2.11D-07.
      3 vectors produced by pass  8 Test12= 9.80D-15 1.67D-09 XBig12= 7.13D-15 1.50D-08.
 InvSVY:  IOpt=1 It=  1 EMax= 5.33D-15
 Solved reduced A of dimension   413 with    60 vectors.
 FullF1:  Do perturbations      1 to       3.
 Isotropic polarizability for W=    0.000000      130.64 Bohr**3.
 End of Minotr F.D. properties file   721 does not exist.
 End of Minotr F.D. properties file   722 does not exist.
 End of Minotr F.D. properties file   788 does not exist.
 Leave Link 1002 at Wed Feb 28 19:51:26 2024, MaxMem=  2147483648 cpu:             385.6 elap:              13.8
 (Enter /software/gaussian-16RevA.03-el7-x86_64/g16/l601.exe)
 Copying SCF densities to generalized density rwf, IOpCl= 0 IROHF=0.

 **********************************************************************

            Population analysis using the SCF density.

 **********************************************************************

 Alpha  occ. eigenvalues --  -19.26421 -19.26361 -14.50147 -10.43309 -10.43159
 Alpha  occ. eigenvalues --  -10.33213 -10.33010 -10.32967 -10.32824 -10.32815
 Alpha  occ. eigenvalues --  -10.32431 -10.32391  -1.17734  -1.15679  -1.06535
 Alpha  occ. eigenvalues --   -0.98168  -0.89892  -0.86933  -0.81473  -0.76752
 Alpha  occ. eigenvalues --   -0.72436  -0.71295  -0.66444  -0.61334  -0.59277
 Alpha  occ. eigenvalues --   -0.59047  -0.57802  -0.54720  -0.54663  -0.53772
 Alpha  occ. eigenvalues --   -0.52843  -0.51267  -0.50058  -0.49267  -0.46972
 Alpha  occ. eigenvalues --   -0.46878  -0.45983  -0.38717  -0.37261  -0.36447
 Alpha  occ. eigenvalues --   -0.35763  -0.34832
 Alpha virt. eigenvalues --   -0.02133   0.02397   0.09992   0.14738   0.14879
 Alpha virt. eigenvalues --    0.16227   0.18529   0.20831   0.21419   0.22742
 Alpha virt. eigenvalues --    0.22902   0.23769   0.24563   0.27300   0.28861
 Alpha virt. eigenvalues --    0.30848   0.31845   0.35220   0.36363   0.37413
 Alpha virt. eigenvalues --    0.39399   0.40763   0.42009   0.44518   0.46217
 Alpha virt. eigenvalues --    0.48734   0.49071   0.50956   0.53635   0.53669
 Alpha virt. eigenvalues --    0.54059   0.55096   0.55442   0.57525   0.59222
 Alpha virt. eigenvalues --    0.60078   0.64813   0.66689   0.67657   0.70415
 Alpha virt. eigenvalues --    0.71768   0.72080   0.72587   0.73466   0.74427
 Alpha virt. eigenvalues --    0.75359   0.75673   0.76499   0.77420   0.77565
 Alpha virt. eigenvalues --    0.77984   0.79865   0.81686   0.82275   0.83057
 Alpha virt. eigenvalues --    0.84267   0.85670   0.86945   0.90749   0.93333
 Alpha virt. eigenvalues --    0.97164   0.97606   1.00937   1.05893   1.10516
 Alpha virt. eigenvalues --    1.11668   1.13334   1.16094   1.17589   1.21877
 Alpha virt. eigenvalues --    1.22249   1.25443   1.29955   1.33438   1.33706
 Alpha virt. eigenvalues --    1.36299   1.40640   1.42247   1.48872   1.51970
 Alpha virt. eigenvalues --    1.51991   1.53487   1.54392   1.54709   1.54857
 Alpha virt. eigenvalues --    1.56596   1.68468   1.70352   1.75671   1.82438
 Alpha virt. eigenvalues --    1.83643   1.86453   1.87385   1.90936   1.93016
 Alpha virt. eigenvalues --    1.97794   1.99513   2.00558   2.02950   2.07280
 Alpha virt. eigenvalues --    2.08692   2.09346   2.15372   2.15596   2.17868
 Alpha virt. eigenvalues --    2.21793   2.22655   2.25154   2.30231   2.32703
 Alpha virt. eigenvalues --    2.34923   2.35194   2.37470   2.43443   2.49404
 Alpha virt. eigenvalues --    2.52211   2.55745   2.58931   2.59795   2.66056
 Alpha virt. eigenvalues --    2.70985   2.73666   2.76158   2.77476   2.78255
 Alpha virt. eigenvalues --    2.79070   2.84522   2.84803   2.88685   2.89615
 Alpha virt. eigenvalues --    2.95906   3.21068   3.23489   3.26558   3.28033
 Alpha virt. eigenvalues --    3.40660   3.47748   3.68248   3.71490   3.75478
          Condensed to atoms (all electrons):
               1          2          3          4          5          6
     1  C    4.790218   0.254794  -0.021947   0.009430   0.011489  -0.000163
     2  N    0.254794   7.018637   0.309667  -0.097975  -0.137188   0.007555
     3  C   -0.021947   0.309667   4.601009   0.795657   0.185636  -0.072623
     4  O    0.009430  -0.097975   0.795657   7.604891  -0.097260   0.008093
     5  C    0.011489  -0.137188   0.185636  -0.097260   5.579623   0.314398
     6  C   -0.000163   0.007555  -0.072623   0.008093   0.314398   5.242594
     7  C    0.000004  -0.000055   0.013855   0.000442   0.098725   0.261965
     8  C    0.000005  -0.000026  -0.001286  -0.000015  -0.143198   0.090601
     9  C   -0.000079   0.007153   0.015401  -0.000046   0.021419  -0.117569
    10  C    0.010068  -0.149461  -0.029865   0.002177   0.271211   0.020842
    11  C   -0.028777   0.325178  -0.079758  -0.000429  -0.041752   0.015436
    12  O   -0.004998  -0.093058  -0.000508  -0.000013   0.002402  -0.000030
    13  H    0.396912  -0.026159  -0.002988   0.001973   0.000850   0.000006
    14  H    0.396885  -0.026148  -0.002988   0.001982   0.000853   0.000006
    15  H    0.381893  -0.026542   0.004372   0.000190  -0.000605   0.000012
    16  H   -0.000019   0.000458  -0.008053   0.003908  -0.069146   0.442457
    17  H   -0.000000   0.000001  -0.000214  -0.000001   0.011823  -0.063686
    18  H   -0.000000   0.000001   0.000026  -0.000000  -0.001376   0.010636
    19  H   -0.000006   0.000439  -0.000260   0.000001   0.012177  -0.001517
               7          8          9         10         11         12
     1  C    0.000004   0.000005  -0.000079   0.010068  -0.028777  -0.004998
     2  N   -0.000055  -0.000026   0.007153  -0.149461   0.325178  -0.093058
     3  C    0.013855  -0.001286   0.015401  -0.029865  -0.079758  -0.000508
     4  O    0.000442  -0.000015  -0.000046   0.002177  -0.000429  -0.000013
     5  C    0.098725  -0.143198   0.021419   0.271211  -0.041752   0.002402
     6  C    0.261965   0.090601  -0.117569   0.020842   0.015436  -0.000030
     7  C    5.155505   0.283895   0.090924  -0.143517  -0.001268  -0.000017
     8  C    0.283895   5.155189   0.262408   0.098147   0.013731   0.000471
     9  C    0.090924   0.262408   5.240540   0.315498  -0.072080   0.008049
    10  C   -0.143517   0.098147   0.315498   5.626289   0.156285  -0.101723
    11  C   -0.001268   0.013731  -0.072080   0.156285   4.624020   0.796618
    12  O   -0.000017   0.000471   0.008049  -0.101723   0.796618   7.598190
    13  H   -0.000001   0.000000   0.000006  -0.000517   0.001858   0.000105
    14  H   -0.000001   0.000000   0.000006  -0.000518   0.001863   0.000104
    15  H    0.000001  -0.000002  -0.000016   0.004197  -0.003580   0.017493
    16  H   -0.060266   0.010214  -0.001574   0.012135  -0.000194   0.000001
    17  H    0.437277  -0.060832   0.010603  -0.001364   0.000028  -0.000000
    18  H   -0.060872   0.437434  -0.063833   0.011873  -0.000212  -0.000001
    19  H    0.010179  -0.059932   0.441729  -0.069167  -0.007403   0.003946
              13         14         15         16         17         18
     1  C    0.396912   0.396885   0.381893  -0.000019  -0.000000  -0.000000
     2  N   -0.026159  -0.026148  -0.026542   0.000458   0.000001   0.000001
     3  C   -0.002988  -0.002988   0.004372  -0.008053  -0.000214   0.000026
     4  O    0.001973   0.001982   0.000190   0.003908  -0.000001  -0.000000
     5  C    0.000850   0.000853  -0.000605  -0.069146   0.011823  -0.001376
     6  C    0.000006   0.000006   0.000012   0.442457  -0.063686   0.010636
     7  C   -0.000001  -0.000001   0.000001  -0.060266   0.437277  -0.060872
     8  C    0.000000   0.000000  -0.000002   0.010214  -0.060832   0.437434
     9  C    0.000006   0.000006  -0.000016  -0.001574   0.010603  -0.063833
    10  C   -0.000517  -0.000518   0.004197   0.012135  -0.001364   0.011873
    11  C    0.001858   0.001863  -0.003580  -0.000194   0.000028  -0.000212
    12  O    0.000105   0.000104   0.017493   0.000001  -0.000000  -0.000001
    13  H    0.514959  -0.022936  -0.017313  -0.000001  -0.000000   0.000000
    14  H   -0.022936   0.514965  -0.017309  -0.000001  -0.000000   0.000000
    15  H   -0.017313  -0.017309   0.499694  -0.000001   0.000000  -0.000000
    16  H   -0.000001  -0.000001  -0.000001   0.555925  -0.007665  -0.000111
    17  H   -0.000000  -0.000000   0.000000  -0.007665   0.551276  -0.008748
    18  H    0.000000   0.000000  -0.000000  -0.000111  -0.008748   0.551222
    19  H   -0.000000  -0.000000  -0.000011   0.000018  -0.000110  -0.007690
              19
     1  C   -0.000006
     2  N    0.000439
     3  C   -0.000260
     4  O    0.000001
     5  C    0.012177
     6  C   -0.001517
     7  C    0.010179
     8  C   -0.059932
     9  C    0.441729
    10  C   -0.069167
    11  C   -0.007403
    12  O    0.003946
    13  H   -0.000000
    14  H   -0.000000
    15  H   -0.000011
    16  H    0.000018
    17  H   -0.000110
    18  H   -0.007690
    19  H    0.555271
 Mulliken charges:
               1
     1  C   -0.195707
     2  N   -0.367271
     3  C    0.294865
     4  O   -0.233007
     5  C   -0.020082
     6  C   -0.159012
     7  C   -0.086776
     8  C   -0.086803
     9  C   -0.158537
    10  C   -0.032590
    11  C    0.300435
    12  O   -0.227033
    13  H    0.153244
    14  H    0.153235
    15  H    0.157527
    16  H    0.121915
    17  H    0.131613
    18  H    0.131650
    19  H    0.122335
 Sum of Mulliken charges =  -0.00000
 Mulliken charges with hydrogens summed into heavy atoms:
               1
     1  C    0.268299
     2  N   -0.367271
     3  C    0.294865
     4  O   -0.233007
     5  C   -0.020082
     6  C   -0.037096
     7  C    0.044836
     8  C    0.044847
     9  C   -0.036202
    10  C   -0.032590
    11  C    0.300435
    12  O   -0.227033
 APT charges:
               1
     1  C    0.359773
     2  N   -1.242360
     3  C    1.607471
     4  O   -1.040398
     5  C   -0.241989
     6  C   -0.018743
     7  C   -0.026563
     8  C   -0.026691
     9  C   -0.016160
    10  C   -0.237327
    11  C    1.619214
    12  O   -1.052567
    13  H   -0.008243
    14  H   -0.008060
    15  H    0.061790
    16  H    0.078209
    17  H    0.057137
    18  H    0.056768
    19  H    0.078740
 Sum of APT charges =  -0.00000
 APT charges with hydrogens summed into heavy atoms:
               1
     1  C    0.405259
     2  N   -1.242360
     3  C    1.607471
     4  O   -1.040398
     5  C   -0.241989
     6  C    0.059466
     7  C    0.030574
     8  C    0.030078
     9  C    0.062580
    10  C   -0.237327
    11  C    1.619214
    12  O   -1.052567
 Electronic spatial extent (au):  <R**2>=           1872.3148
 Charge=             -0.0000 electrons
 Dipole moment (field-independent basis, Debye):
    X=              2.9442    Y=             -0.2135    Z=             -0.1962  Tot=              2.9585
 Quadrupole moment (field-independent basis, Debye-Ang):
   XX=            -53.8728   YY=            -77.7924   ZZ=            -69.4623
   XY=             -2.3257   XZ=             -1.3455   YZ=             -2.4903
 Traceless Quadrupole moment (field-independent basis, Debye-Ang):
   XX=             13.1697   YY=            -10.7499   ZZ=             -2.4198
   XY=             -2.3257   XZ=             -1.3455   YZ=             -2.4903
 Octapole moment (field-independent basis, Debye-Ang**2):
  XXX=             16.2428  YYY=             -8.8355  ZZZ=              0.2698  XYY=             35.4243
  XXY=              6.8282  XXZ=              0.5365  XZZ=             -4.0165  YZZ=             -1.8769
  YYZ=             -4.1460  XYZ=             12.0820
 Hexadecapole moment (field-independent basis, Debye-Ang**3):
 XXXX=          -1365.0899 YYYY=           -761.9814 ZZZZ=           -132.5989 XXXY=              8.3102
 XXXZ=             25.1475 YYYX=             24.2648 YYYZ=           -108.2639 ZZZX=             46.6390
 ZZZY=            -94.2971 XXYY=           -388.7796 XXZZ=           -295.6051 YYZZ=           -144.0880
 XXYZ=            -28.3658 YYXZ=             11.1398 ZZXY=             11.6984
 N-N= 6.564199486578D+02 E-N=-2.597192461089D+03  KE= 5.466500632025D+02
  Exact polarizability: 171.454   1.154 151.721  -4.669  26.150  68.732
 Approx polarizability: 135.432   3.292 144.584  -2.462  24.206  67.318
 No NMR shielding tensors so no spin-rotation constants.
 Leave Link  601 at Wed Feb 28 19:51:26 2024, MaxMem=  2147483648 cpu:               5.3 elap:               0.2
 (Enter /software/gaussian-16RevA.03-el7-x86_64/g16/l701.exe)
 ... and contract with generalized density number  0.
 Compute integral second derivatives.
 R6Disp: Adding Grimme-D2 dispersion energy 2nd derivatives to the Hessian.
   1 Symmetry operations used in ECPInt.
 ECPInt:  NShTT=    3741 NPrTT=   15055 LenC2=    3665 LenP2D=   11026.
 LDataN:  DoStor=T MaxTD1= 6 Len=  172
 D2PCM: PCM CHGder 2nd derivatives, FixD1E=F FixD2E=F DoIter=F DoCFld=F I1PDM=0
 GePol: Maximum number of non-zero 2nd derivatives   =     213
 Leave Link  701 at Wed Feb 28 19:51:28 2024, MaxMem=  2147483648 cpu:              62.2 elap:               2.2
 (Enter /software/gaussian-16RevA.03-el7-x86_64/g16/l702.exe)
 L702 exits ... SP integral derivatives will be done elsewhere.
 Leave Link  702 at Wed Feb 28 19:51:28 2024, MaxMem=  2147483648 cpu:               0.5 elap:               0.0
 (Enter /software/gaussian-16RevA.03-el7-x86_64/g16/l703.exe)
 Integral derivatives from FoFJK, PRISM(SPDF).
 Compute integral second derivatives, UseDBF=F ICtDFT=           0.
 Calling FoFJK, ICntrl=    100127 FMM=F ISym2X=0 I1Cent= 0 IOpClX= 0 NMat=1 NMatS=1 NMatT=0.
 FoFJK:  IHMeth= 1 ICntrl=  100127 DoSepK=T KAlg= 0 I1Cent=           0 FoldK=F
 IRaf=         1 NMat=       1 IRICut=       1 DoRegI=T DoRafI=F ISym2E= 0 IDoP0=0 IntGTp=1.
 FoFCou: FMM=F IPFlag=           0 FMFlag=      100000 FMFlg1=         800
         NFxFlg=           0 DoJE=F BraDBF=F KetDBF=F FulRan=T
         wScrn=  0.000000 ICntrl=    100527 IOpCl=  0 I1Cent=           0 NGrid=           0
         NMat0=    1 NMatS0=      1 NMatT0=    0 NMatD0=    1 NMtDS0=    0 NMtDT0=    0
 Symmetry not used in FoFCou.
 Leave Link  703 at Wed Feb 28 19:51:46 2024, MaxMem=  2147483648 cpu:             503.8 elap:              18.0
 (Enter /software/gaussian-16RevA.03-el7-x86_64/g16/l716.exe)
 Dipole        = 1.15833862D+00-8.40170369D-02-7.71924905D-02
 Polarizability= 1.71453790D+02 1.15437649D+00 1.51721241D+02
                -4.66868065D+00 2.61497682D+01 6.87315676D+01
 Full mass-weighted force constant matrix:
 Low frequencies ---   -8.6237   -0.0003    0.0007    0.0008    7.0794    8.5768
 Low frequencies ---   75.7557  111.0392  138.1877
 Diagonal vibrational polarizability:
       20.5868108      23.0538787      32.7329913
 Harmonic frequencies (cm**-1), IR intensities (KM/Mole), Raman scattering
 activities (A**4/AMU), depolarization ratios for plane and unpolarized
 incident light, reduced masses (AMU), force constants (mDyne/A),
 and normal coordinates:
                      1                      2                      3
                      A                      A                      A
 Frequencies --     75.7437               111.0388               138.1869
 Red. masses --      1.0239                 3.6031                 4.9816
 Frc consts  --      0.0035                 0.0262                 0.0560
 IR Inten    --      0.0011                 9.7394                 0.0000
  Atom  AN      X      Y      Z        X      Y      Z        X      Y      Z
     1   6    -0.00   0.00  -0.02     0.01  -0.09   0.32    -0.00   0.00  -0.00
     2   7     0.00  -0.00   0.01     0.00  -0.00   0.01     0.00  -0.00   0.00
     3   6     0.00  -0.00   0.01    -0.00   0.03  -0.09     0.00  -0.01   0.04
     4   8     0.00  -0.00   0.01    -0.01   0.03  -0.12     0.01  -0.06   0.21
     5   6     0.00  -0.00   0.01    -0.01   0.03  -0.11    -0.00   0.02  -0.09
     6   6     0.00  -0.00   0.01    -0.00   0.00  -0.00    -0.01   0.08  -0.27
     7   6     0.00  -0.00   0.00     0.01  -0.04   0.13    -0.01   0.05  -0.16
     8   6    -0.00   0.00  -0.01     0.01  -0.04   0.13     0.01  -0.05   0.16
     9   6    -0.00   0.00  -0.01    -0.00   0.00  -0.00     0.01  -0.08   0.27
    10   6    -0.00   0.00  -0.00    -0.01   0.03  -0.11     0.00  -0.02   0.08
    11   6    -0.00   0.00  -0.00    -0.00   0.03  -0.09    -0.00   0.01  -0.04
    12   8    -0.00   0.00  -0.01    -0.01   0.04  -0.12    -0.01   0.06  -0.21
    13   1     0.02   0.56  -0.15    -0.19  -0.03   0.41    -0.00   0.05  -0.01
    14   1    -0.05  -0.40  -0.43     0.23  -0.18   0.35    -0.00  -0.04  -0.04
    15   1     0.02  -0.16   0.54     0.02  -0.13   0.46     0.00  -0.01   0.05
    16   1     0.00  -0.01   0.02     0.00  -0.00   0.01    -0.02   0.13  -0.46
    17   1     0.00  -0.00   0.01     0.01  -0.07   0.25    -0.01   0.09  -0.31
    18   1    -0.00   0.01  -0.02     0.01  -0.07   0.25     0.01  -0.09   0.30
    19   1    -0.00   0.01  -0.02     0.00  -0.00   0.01     0.02  -0.13   0.46
                      4                      5                      6
                      A                      A                      A
 Frequencies --    166.0507               240.7176               248.7669
 Red. masses --     10.0061                 4.5212                 4.7609
 Frc consts  --      0.1626                 0.1544                 0.1736
 IR Inten    --      5.4055                 0.0145                 0.4121
  Atom  AN      X      Y      Z        X      Y      Z        X      Y      Z
     1   6    -0.00   0.01  -0.04     0.02   0.21   0.06    -0.01   0.03  -0.12
     2   7    -0.02   0.10  -0.36    -0.01  -0.04  -0.00     0.02  -0.11   0.37
     3   6    -0.00   0.03  -0.10    -0.07  -0.10  -0.02     0.00  -0.01   0.06
     4   8     0.02  -0.11   0.38    -0.18  -0.04  -0.00     0.00  -0.00   0.01
     5   6    -0.01   0.08  -0.26    -0.00  -0.14  -0.04    -0.01   0.06  -0.20
     6   6    -0.00   0.02  -0.08     0.13   0.00  -0.01    -0.01   0.03  -0.11
     7   6     0.01  -0.04   0.13     0.07   0.16   0.05     0.00  -0.03   0.11
     8   6     0.01  -0.04   0.13    -0.04   0.17   0.05     0.01  -0.03   0.11
     9   6    -0.00   0.02  -0.08    -0.13   0.03   0.01    -0.00   0.03  -0.11
    10   6    -0.01   0.08  -0.26    -0.03  -0.14  -0.04    -0.01   0.06  -0.20
    11   6    -0.00   0.03  -0.10     0.05  -0.11  -0.03     0.00  -0.01   0.05
    12   8     0.02  -0.11   0.38     0.18  -0.07  -0.03    -0.00  -0.00   0.01
    13   1    -0.20   0.04   0.05    -0.08   0.30   0.08     0.34  -0.01  -0.28
    14   1     0.20  -0.06   0.01    -0.09   0.30   0.09    -0.35   0.13  -0.21
    15   1     0.00  -0.02   0.07     0.25   0.26   0.06    -0.02   0.08  -0.29
    16   1    -0.00   0.01  -0.02     0.32  -0.01  -0.02    -0.01   0.03  -0.10
    17   1     0.01  -0.09   0.33     0.13   0.24   0.07     0.01  -0.09   0.30
    18   1     0.01  -0.09   0.32    -0.08   0.26   0.08     0.01  -0.09   0.30
    19   1    -0.00   0.01  -0.03    -0.32   0.04   0.02     0.00   0.03  -0.09
                      7                      8                      9
                      A                      A                      A
 Frequencies --    287.3442               361.6079               425.0374
 Red. masses --      3.7783                11.0936                 3.0320
 Frc consts  --      0.1838                 0.8547                 0.3227
 IR Inten    --      5.8631                28.4939                 0.9575
  Atom  AN      X      Y      Z        X      Y      Z        X      Y      Z
     1   6     0.01   0.30   0.09    -0.12  -0.05  -0.01    -0.00   0.00  -0.00
     2   7    -0.02  -0.05  -0.01    -0.10   0.02   0.01     0.00  -0.02   0.06
     3   6     0.03  -0.04  -0.01     0.03   0.01   0.00    -0.00   0.01  -0.05
     4   8     0.21  -0.13  -0.05     0.43  -0.17  -0.07     0.00  -0.00   0.01
     5   6     0.00   0.04   0.01    -0.09   0.03   0.01    -0.01   0.04  -0.15
     6   6    -0.04   0.00   0.00    -0.18  -0.03  -0.00     0.01  -0.06   0.22
     7   6    -0.02  -0.04  -0.01    -0.23   0.02   0.02    -0.00   0.03  -0.10
     8   6    -0.00  -0.04  -0.01    -0.23   0.03   0.02    -0.00   0.03  -0.10
     9   6     0.02  -0.00  -0.00    -0.18   0.06   0.03     0.01  -0.06   0.22
    10   6    -0.00   0.03   0.01    -0.09  -0.02  -0.00    -0.01   0.04  -0.15
    11   6    -0.03  -0.03  -0.01     0.04  -0.00  -0.00    -0.00   0.01  -0.05
    12   8    -0.18  -0.07  -0.01     0.52   0.13   0.01     0.00  -0.00   0.01
    13   1    -0.14   0.45   0.13    -0.10  -0.06  -0.01     0.05  -0.01  -0.03
    14   1    -0.14   0.45   0.14    -0.10  -0.06  -0.01    -0.05   0.02  -0.01
    15   1     0.36   0.38   0.09    -0.20  -0.06  -0.01    -0.00   0.01  -0.03
    16   1    -0.09   0.01   0.01    -0.22  -0.03   0.00     0.03  -0.17   0.59
    17   1    -0.04  -0.06  -0.01    -0.20   0.06   0.03    -0.01   0.05  -0.18
    18   1     0.01  -0.06  -0.02    -0.21  -0.02   0.01    -0.01   0.05  -0.17
    19   1     0.07  -0.01  -0.01    -0.23   0.07   0.03     0.03  -0.17   0.59
                     10                     11                     12
                      A                      A                      A
 Frequencies --    477.8234               486.5643               541.3142
 Red. masses --      4.7105                 5.6637                 7.1920
 Frc consts  --      0.6337                 0.7900                 1.2416
 IR Inten    --      0.0006                21.3939                16.0304
  Atom  AN      X      Y      Z        X      Y      Z        X      Y      Z
     1   6    -0.00   0.00   0.00     0.38  -0.02  -0.02    -0.00  -0.04  -0.01
     2   7    -0.00   0.00  -0.00     0.25  -0.02  -0.02    -0.01  -0.13  -0.04
     3   6     0.01  -0.04   0.15     0.10  -0.02  -0.01    -0.15  -0.10  -0.02
     4   8    -0.00   0.02  -0.07    -0.05   0.05   0.02    -0.14  -0.14  -0.03
     5   6     0.01  -0.07   0.25    -0.01  -0.01  -0.00    -0.13   0.16   0.05
     6   6     0.00  -0.02   0.05    -0.15  -0.09  -0.02    -0.22   0.20   0.07
     7   6    -0.01   0.07  -0.24    -0.23   0.02   0.01    -0.18   0.09   0.04
     8   6     0.01  -0.07   0.24    -0.23   0.02   0.02     0.19   0.06   0.01
     9   6    -0.00   0.02  -0.06    -0.13   0.12   0.04     0.26   0.16   0.03
    10   6    -0.01   0.07  -0.25    -0.00   0.01   0.00     0.17   0.14   0.03
    11   6    -0.01   0.05  -0.16     0.10   0.00  -0.00     0.13  -0.12  -0.04
    12   8     0.00  -0.02   0.07    -0.07  -0.04  -0.01     0.11  -0.16  -0.05
    13   1    -0.01  -0.00   0.00     0.37  -0.02  -0.02    -0.03  -0.02  -0.00
    14   1     0.01   0.00   0.00     0.37  -0.02  -0.02    -0.03  -0.02  -0.01
    15   1    -0.00  -0.00   0.00     0.39  -0.02  -0.02     0.06  -0.03  -0.01
    16   1     0.00  -0.02   0.07    -0.19  -0.09  -0.02    -0.27   0.20   0.07
    17   1    -0.02   0.16  -0.55    -0.17   0.10   0.03    -0.32  -0.10  -0.02
    18   1     0.03  -0.16   0.55    -0.19  -0.07  -0.01     0.29  -0.16  -0.06
    19   1    -0.00   0.02  -0.07    -0.17   0.12   0.04     0.30   0.16   0.03
                     13                     14                     15
                      A                      A                      A
 Frequencies --    621.3743               698.6464               719.0605
 Red. masses --     10.5594                 4.7334                 6.3382
 Frc consts  --      2.4021                 1.3613                 1.9308
 IR Inten    --      3.1492                 0.0067                 1.6226
  Atom  AN      X      Y      Z        X      Y      Z        X      Y      Z
     1   6     0.23  -0.02  -0.02     0.00  -0.00   0.00     0.00  -0.00  -0.00
     2   7     0.12  -0.01  -0.01    -0.00   0.00  -0.00    -0.02  -0.16  -0.05
     3   6    -0.11  -0.30  -0.08    -0.01   0.07  -0.24     0.13  -0.10  -0.04
     4   8    -0.09  -0.37  -0.10     0.00  -0.02   0.07    -0.14   0.02   0.01
     5   6    -0.15  -0.01   0.00    -0.01   0.04  -0.13     0.16   0.22   0.06
     6   6    -0.01   0.20   0.06     0.01  -0.05   0.19     0.09   0.11   0.03
     7   6     0.11   0.02   0.00    -0.01   0.06  -0.19     0.18  -0.18  -0.06
     8   6     0.11  -0.04  -0.02     0.01  -0.05   0.19    -0.21  -0.15  -0.03
     9   6    -0.05  -0.20  -0.05    -0.01   0.05  -0.19    -0.07   0.10   0.03
    10   6    -0.15   0.04   0.02     0.01  -0.04   0.12    -0.12   0.24   0.08
    11   6    -0.04   0.31   0.09     0.01  -0.07   0.26    -0.15  -0.08  -0.02
    12   8    -0.01   0.38   0.11    -0.00   0.02  -0.07     0.15  -0.01  -0.01
    13   1     0.21  -0.01  -0.01     0.02   0.01  -0.01    -0.13   0.14   0.03
    14   1     0.21  -0.01  -0.02    -0.02  -0.00  -0.01    -0.13   0.13   0.06
    15   1     0.19  -0.02  -0.02    -0.00   0.00  -0.01     0.31   0.07   0.01
    16   1     0.01   0.20   0.06     0.02  -0.10   0.36    -0.31   0.14   0.06
    17   1     0.01  -0.13  -0.04    -0.02   0.12  -0.42     0.24  -0.10  -0.04
    18   1     0.03   0.13   0.03     0.02  -0.13   0.44    -0.26  -0.05  -0.00
    19   1    -0.03  -0.20  -0.06    -0.02   0.10  -0.34     0.32   0.07   0.01
                     16                     17                     18
                      A                      A                      A
 Frequencies --    729.2007               741.5026               821.5935
 Red. masses --      6.3965                 2.1330                 4.1778
 Frc consts  --      2.0039                 0.6910                 1.6615
 IR Inten    --      1.4284               129.6042                 0.3182
  Atom  AN      X      Y      Z        X      Y      Z        X      Y      Z
     1   6     0.14  -0.01  -0.01    -0.00   0.00  -0.01    -0.00   0.00  -0.01
     2   7     0.03   0.00  -0.00    -0.00   0.03  -0.10    -0.00   0.01  -0.04
     3   6     0.02   0.14   0.04     0.01  -0.05   0.18     0.01  -0.09   0.31
     4   8     0.09   0.15   0.04    -0.00   0.01  -0.05    -0.00   0.02  -0.08
     5   6    -0.15   0.09   0.03    -0.00   0.01  -0.03    -0.01   0.08  -0.29
     6   6    -0.07   0.34   0.10    -0.00   0.01  -0.05     0.00  -0.01   0.05
     7   6     0.07   0.03   0.00    -0.00   0.01  -0.05    -0.00   0.01  -0.03
     8   6     0.08  -0.03  -0.01    -0.00   0.01  -0.05     0.01  -0.03   0.11
     9   6    -0.13  -0.33  -0.09    -0.00   0.01  -0.04    -0.00   0.00  -0.01
    10   6    -0.16  -0.08  -0.02    -0.00   0.01  -0.04     0.01  -0.05   0.19
    11   6    -0.00  -0.14  -0.04     0.01  -0.05   0.18    -0.01   0.04  -0.14
    12   8     0.05  -0.16  -0.05    -0.00   0.01  -0.05     0.00  -0.01   0.04
    13   1     0.16  -0.02  -0.01    -0.09   0.00   0.03    -0.07  -0.01   0.02
    14   1     0.16  -0.02  -0.01     0.09  -0.02   0.02     0.07  -0.00   0.02
    15   1     0.15  -0.01  -0.01     0.00  -0.01   0.03     0.00  -0.01   0.03
    16   1    -0.15   0.35   0.11     0.02  -0.12   0.41     0.01  -0.09   0.30
    17   1    -0.11  -0.23  -0.05     0.02  -0.14   0.49    -0.01   0.09  -0.30
    18   1    -0.05   0.24   0.07     0.02  -0.14   0.48    -0.01   0.09  -0.33
    19   1    -0.24  -0.33  -0.08     0.02  -0.12   0.42    -0.03   0.17  -0.60
                     19                     20                     21
                      A                      A                      A
 Frequencies --    821.8268               885.9712               930.8017
 Red. masses --      2.2863                 4.6084                 1.4129
 Frc consts  --      0.9098                 2.1313                 0.7212
 IR Inten    --      3.1681                10.8091                 0.0018
  Atom  AN      X      Y      Z        X      Y      Z        X      Y      Z
     1   6    -0.00   0.00  -0.01     0.00   0.05   0.01    -0.00   0.00  -0.00
     2   7    -0.00   0.02  -0.07     0.02   0.17   0.05     0.00  -0.00   0.00
     3   6     0.00  -0.02   0.08    -0.24   0.05   0.02     0.00  -0.01   0.04
     4   8    -0.00   0.01  -0.02     0.03  -0.12  -0.04    -0.00   0.00  -0.01
     5   6    -0.00   0.01  -0.02    -0.05   0.03   0.01    -0.00   0.02  -0.05
     6   6     0.00  -0.01   0.03     0.07   0.08   0.02     0.00  -0.03   0.10
     7   6     0.00  -0.03   0.09     0.18  -0.11  -0.04     0.00  -0.01   0.05
     8   6     0.00  -0.01   0.05    -0.20  -0.08  -0.01    -0.00   0.01  -0.05
     9   6     0.00  -0.01   0.05    -0.05   0.09   0.03    -0.00   0.03  -0.10
    10   6    -0.01   0.05  -0.17     0.06   0.02   0.00     0.00  -0.02   0.05
    11   6     0.01  -0.06   0.22     0.24   0.00  -0.01    -0.00   0.01  -0.04
    12   8    -0.00   0.02  -0.05    -0.05  -0.12  -0.03     0.00  -0.00   0.01
    13   1    -0.06   0.00   0.02     0.24  -0.23  -0.04    -0.01  -0.00   0.00
    14   1     0.06  -0.01   0.01     0.24  -0.21  -0.11     0.01   0.00   0.00
    15   1     0.00  -0.00   0.02    -0.53  -0.08   0.00     0.00  -0.00   0.00
    16   1    -0.02   0.12  -0.41    -0.06   0.09   0.03    -0.03   0.17  -0.58
    17   1    -0.03   0.16  -0.56     0.28   0.02  -0.01    -0.02   0.10  -0.33
    18   1    -0.03   0.16  -0.56    -0.27   0.06   0.03     0.01  -0.09   0.33
    19   1    -0.01   0.04  -0.12     0.07   0.08   0.02     0.03  -0.17   0.58
                     22                     23                     24
                      A                      A                      A
 Frequencies --   1009.2839              1011.5789              1045.2203
 Red. masses --      1.4088                 6.3939                 2.2375
 Frc consts  --      0.8455                 3.8549                 1.4402
 IR Inten    --      0.3648                35.2321               177.1251
  Atom  AN      X      Y      Z        X      Y      Z        X      Y      Z
     1   6     0.00  -0.00   0.00     0.31  -0.02  -0.02     0.00  -0.13  -0.04
     2   7     0.00  -0.00   0.01    -0.16   0.02   0.01    -0.03  -0.12  -0.03
     3   6    -0.00   0.01  -0.02    -0.26   0.13   0.05    -0.11   0.10   0.03
     4   8     0.00  -0.00   0.00     0.07  -0.00  -0.00     0.03   0.04   0.01
     5   6     0.00  -0.01   0.03    -0.12  -0.03  -0.00    -0.07  -0.04  -0.01
     6   6    -0.00   0.03  -0.10     0.00  -0.18  -0.05     0.02   0.03   0.01
     7   6     0.00  -0.02   0.07     0.14  -0.11  -0.04     0.05  -0.01  -0.01
     8   6     0.00  -0.02   0.07     0.16   0.08   0.02    -0.08  -0.02  -0.00
     9   6    -0.00   0.03  -0.10     0.04   0.18   0.05     0.01   0.02   0.01
    10   6     0.00  -0.01   0.03    -0.11   0.05   0.02     0.06  -0.04  -0.01
    11   6    -0.00   0.01  -0.02    -0.29  -0.09  -0.01     0.12   0.08   0.02
    12   8     0.00  -0.00   0.00     0.07  -0.01  -0.01    -0.02   0.04   0.01
    13   1     0.01   0.00  -0.00     0.34  -0.03  -0.03    -0.31   0.28   0.02
    14   1    -0.01   0.00  -0.00     0.34  -0.03  -0.02    -0.31   0.24   0.16
    15   1     0.00   0.00  -0.00     0.34  -0.02  -0.02     0.71   0.03  -0.02
    16   1     0.02  -0.16   0.55     0.01  -0.20  -0.06     0.12   0.02   0.00
    17   1    -0.02   0.11  -0.38     0.16  -0.11  -0.04     0.09   0.05   0.01
    18   1    -0.02   0.11  -0.38     0.18   0.08   0.02    -0.10   0.02   0.01
    19   1     0.02  -0.16   0.55     0.05   0.20   0.05     0.06   0.02   0.00
                     25                     26                     27
                      A                      A                      A
 Frequencies --   1048.7568              1052.4300              1108.9462
 Red. masses --      1.7993                 1.3685                 1.9859
 Frc consts  --      1.1660                 0.8931                 1.4389
 IR Inten    --      3.1502                 0.0008                24.1714
  Atom  AN      X      Y      Z        X      Y      Z        X      Y      Z
     1   6     0.05   0.01   0.00     0.00  -0.00   0.00    -0.00   0.01   0.00
     2   7    -0.03   0.02   0.01    -0.00   0.00  -0.00     0.00   0.02   0.00
     3   6    -0.04   0.01   0.01    -0.00   0.00  -0.00     0.05  -0.02  -0.01
     4   8     0.01  -0.00  -0.00     0.00  -0.00   0.00     0.01   0.02   0.01
     5   6    -0.01  -0.01  -0.00    -0.00  -0.00   0.00    -0.05  -0.08  -0.02
     6   6     0.09   0.04   0.01    -0.00   0.02  -0.06     0.05   0.15   0.04
     7   6    -0.10   0.10   0.03     0.00  -0.03   0.11    -0.01  -0.07  -0.02
     8   6    -0.11  -0.08  -0.01    -0.01   0.03  -0.11    -0.00  -0.07  -0.02
     9   6     0.08  -0.06  -0.02     0.00  -0.02   0.06    -0.02   0.15   0.04
    10   6    -0.02   0.02   0.01    -0.00   0.00  -0.00     0.04  -0.09  -0.03
    11   6    -0.07  -0.03  -0.00    -0.00  -0.00   0.00    -0.06  -0.01  -0.00
    12   8     0.02  -0.01  -0.00     0.00   0.00  -0.00    -0.00   0.02   0.01
    13   1     0.09  -0.03  -0.01     0.00   0.00  -0.00     0.02  -0.01   0.00
    14   1     0.09  -0.03  -0.02    -0.00  -0.00  -0.00     0.02  -0.01  -0.01
    15   1    -0.01  -0.01  -0.00     0.00   0.00  -0.00    -0.03   0.00   0.00
    16   1     0.63   0.00  -0.03     0.02  -0.09   0.31     0.41   0.13   0.02
    17   1    -0.03   0.21   0.07    -0.03   0.17  -0.59    -0.27  -0.43  -0.11
    18   1    -0.06  -0.21  -0.07     0.03  -0.17   0.59     0.18  -0.46  -0.14
    19   1     0.62  -0.11  -0.05    -0.00   0.09  -0.31    -0.38   0.19   0.07
                     28                     29                     30
                      A                      A                      A
 Frequencies --   1161.5618              1176.4338              1197.8502
 Red. masses --      1.3149                 1.1208                 2.2156
 Frc consts  --      1.0453                 0.9139                 1.8730
 IR Inten    --      0.3512                 4.4930                13.7860
  Atom  AN      X      Y      Z        X      Y      Z        X      Y      Z
     1   6    -0.01   0.04  -0.14    -0.02   0.00   0.00    -0.00   0.03   0.01
     2   7     0.00  -0.02   0.07     0.02  -0.00  -0.00     0.01   0.00   0.00
     3   6    -0.00   0.00  -0.01     0.02  -0.01  -0.00     0.09  -0.04  -0.02
     4   8     0.00  -0.00   0.00    -0.00   0.00   0.00     0.01   0.04   0.01
     5   6     0.00  -0.00   0.00    -0.01  -0.01  -0.00    -0.11  -0.12  -0.03
     6   6    -0.00   0.00  -0.00     0.00  -0.01  -0.00    -0.07   0.07   0.02
     7   6    -0.00  -0.00  -0.00    -0.02  -0.06  -0.02     0.07   0.01  -0.00
     8   6     0.00   0.00  -0.00    -0.00   0.06   0.02    -0.07   0.02   0.01
     9   6    -0.00   0.00  -0.00     0.01   0.01   0.00     0.08   0.06   0.01
    10   6    -0.00   0.00  -0.00    -0.01   0.01   0.00     0.08  -0.13  -0.04
    11   6    -0.00  -0.00   0.00     0.02   0.00   0.00    -0.10  -0.03  -0.00
    12   8     0.00  -0.00   0.00    -0.00  -0.00  -0.00    -0.00   0.04   0.01
    13   1    -0.62  -0.12   0.19    -0.02   0.00   0.00     0.04  -0.04   0.00
    14   1     0.63   0.01   0.17    -0.02   0.00  -0.00     0.04  -0.03  -0.03
    15   1     0.02  -0.09   0.31    -0.02   0.00   0.00    -0.09   0.00   0.01
    16   1     0.00  -0.00   0.00     0.30  -0.04  -0.03    -0.57   0.12   0.06
    17   1    -0.00  -0.00   0.00    -0.34  -0.52  -0.13     0.20   0.19   0.05
    18   1     0.00  -0.00   0.00    -0.23   0.56   0.17    -0.17   0.23   0.07
    19   1     0.00   0.00  -0.00     0.30  -0.01  -0.02     0.60   0.02  -0.02
                     31                     32                     33
                      A                      A                      A
 Frequencies --   1242.8170              1295.0849              1324.0203
 Red. masses --      3.9706                 2.2726                 1.9643
 Frc consts  --      3.6134                 2.2458                 2.0288
 IR Inten    --     66.7573                77.6069                49.0024
  Atom  AN      X      Y      Z        X      Y      Z        X      Y      Z
     1   6     0.10  -0.01  -0.01    -0.01  -0.12  -0.03    -0.00  -0.07  -0.02
     2   7    -0.14   0.03   0.01     0.01   0.23   0.06     0.01   0.14   0.04
     3   6    -0.09   0.02   0.01     0.01  -0.03  -0.01     0.08  -0.06  -0.02
     4   8    -0.02  -0.05  -0.01    -0.01  -0.05  -0.01    -0.01  -0.02  -0.01
     5   6     0.22   0.13   0.03     0.07  -0.04  -0.01    -0.09   0.05   0.02
     6   6     0.12   0.07   0.01     0.04   0.01   0.00    -0.08  -0.01   0.00
     7   6    -0.13  -0.04  -0.01    -0.02   0.03   0.01     0.01  -0.04  -0.01
     8   6    -0.12   0.06   0.02     0.03   0.02   0.01    -0.02  -0.04  -0.01
     9   6     0.11  -0.08  -0.03    -0.05   0.02   0.01     0.07  -0.02  -0.01
    10   6     0.19  -0.17  -0.06    -0.09  -0.02  -0.00     0.10   0.04   0.01
    11   6    -0.10  -0.01   0.00     0.01  -0.02  -0.01    -0.08  -0.04  -0.01
    12   8    -0.01   0.05   0.01    -0.00  -0.06  -0.02     0.01  -0.03  -0.01
    13   1     0.11   0.00  -0.02    -0.19   0.34  -0.04    -0.09   0.20  -0.03
    14   1     0.11  -0.00   0.01    -0.18   0.26   0.23    -0.09   0.15   0.14
    15   1     0.14  -0.01  -0.01     0.37  -0.03  -0.02     0.17  -0.02  -0.01
    16   1    -0.48   0.13   0.06    -0.38   0.05   0.03     0.46  -0.06  -0.04
    17   1    -0.27  -0.21  -0.05    -0.18  -0.19  -0.05     0.27   0.32   0.08
    18   1    -0.22   0.25   0.08     0.15  -0.23  -0.07    -0.20   0.35   0.11
    19   1    -0.46  -0.05   0.01     0.40  -0.01  -0.02    -0.46   0.02   0.03
                     34                     35                     36
                      A                      A                      A
 Frequencies --   1416.4996              1438.6700              1475.4142
 Red. masses --      5.3858                 1.4955                 1.0366
 Frc consts  --      6.3670                 1.8237                 1.3295
 IR Inten    --      0.4052                81.6020                19.7261
  Atom  AN      X      Y      Z        X      Y      Z        X      Y      Z
     1   6    -0.01  -0.00  -0.00    -0.17   0.01   0.01    -0.00   0.01  -0.05
     2   7     0.13  -0.02  -0.01     0.09   0.01  -0.00     0.00   0.00  -0.02
     3   6     0.03  -0.02  -0.01    -0.03   0.02   0.01    -0.00   0.00   0.00
     4   8    -0.00   0.01   0.00     0.00  -0.01  -0.00     0.00   0.00   0.00
     5   6    -0.19   0.17   0.06    -0.01   0.01   0.00     0.00  -0.00   0.00
     6   6     0.19  -0.01  -0.01     0.02   0.00  -0.00     0.00  -0.00   0.00
     7   6    -0.11  -0.25  -0.07    -0.01  -0.02  -0.00     0.00   0.00   0.00
     8   6    -0.06   0.27   0.08    -0.01   0.02   0.01    -0.00  -0.00  -0.00
     9   6     0.19  -0.02  -0.01     0.02  -0.00  -0.00     0.00  -0.00   0.00
    10   6    -0.22  -0.14  -0.03    -0.01  -0.01  -0.00     0.00   0.00   0.00
    11   6     0.04   0.02   0.00    -0.04  -0.02  -0.00    -0.00  -0.00   0.00
    12   8    -0.00  -0.01  -0.00     0.00   0.01   0.00     0.00   0.00  -0.00
    13   1    -0.21   0.11   0.07     0.40  -0.20  -0.20     0.29  -0.38  -0.09
    14   1    -0.21   0.13   0.02     0.41  -0.27   0.03    -0.28   0.38   0.17
    15   1    -0.32  -0.07  -0.01     0.66   0.21   0.03     0.02  -0.20   0.68
    16   1    -0.00   0.00   0.00    -0.01   0.00   0.00    -0.00  -0.00   0.00
    17   1     0.30   0.30   0.07     0.02   0.02   0.01    -0.00  -0.00  -0.00
    18   1     0.24  -0.35  -0.11     0.01  -0.01  -0.00    -0.00   0.00  -0.00
    19   1    -0.01   0.00   0.00    -0.01  -0.00   0.00    -0.00  -0.00   0.00
                     37                     38                     39
                      A                      A                      A
 Frequencies --   1479.0788              1502.7041              1521.9309
 Red. masses --      1.8874                 1.5397                 2.7638
 Frc consts  --      2.4327                 2.0485                 3.7718
 IR Inten    --    396.7494               162.4036                18.4856
  Atom  AN      X      Y      Z        X      Y      Z        X      Y      Z
     1   6    -0.05  -0.04  -0.01     0.01   0.02   0.01     0.00  -0.00  -0.00
     2   7     0.18  -0.05  -0.02     0.14   0.03   0.00    -0.01   0.01   0.00
     3   6    -0.11   0.05   0.02    -0.07   0.03   0.01     0.05  -0.02  -0.01
     4   8     0.02   0.00  -0.00     0.01  -0.01  -0.00    -0.01   0.00   0.00
     5   6     0.02  -0.02  -0.01    -0.00  -0.04  -0.01    -0.13   0.06   0.02
     6   6     0.02  -0.00  -0.00     0.04  -0.00  -0.00    -0.02  -0.11  -0.03
     7   6     0.00   0.04   0.01    -0.01   0.03   0.01     0.18   0.11   0.02
     8   6    -0.01  -0.03  -0.01    -0.01  -0.04  -0.01    -0.16   0.13   0.04
     9   6     0.01  -0.01  -0.00     0.04  -0.00  -0.00     0.03  -0.11  -0.03
    10   6     0.03   0.02   0.01    -0.00   0.04   0.01     0.12   0.07   0.01
    11   6    -0.11  -0.03  -0.00    -0.08  -0.02  -0.00    -0.04  -0.01  -0.00
    12   8     0.02   0.01   0.00     0.01  -0.01  -0.00     0.01  -0.01  -0.00
    13   1     0.09   0.54  -0.18    -0.45  -0.38   0.30    -0.01  -0.03   0.01
    14   1     0.14   0.33   0.42    -0.48  -0.16  -0.42    -0.02  -0.02  -0.02
    15   1    -0.49  -0.13  -0.05     0.12   0.04   0.01     0.04   0.01   0.00
    16   1    -0.11   0.01   0.01    -0.16   0.02   0.01    -0.07  -0.13  -0.03
    17   1    -0.08  -0.08  -0.02    -0.07  -0.04  -0.01    -0.29  -0.56  -0.15
    18   1    -0.05   0.04   0.01    -0.08   0.10   0.03     0.14  -0.57  -0.17
    19   1    -0.10   0.00   0.01    -0.16   0.02   0.01    -0.06  -0.13  -0.03
                     40                     41                     42
                      A                      A                      A
 Frequencies --   1524.9316              1703.7008              1705.6611
 Red. masses --      3.1155                 7.7549                 7.6145
 Frc consts  --      4.2685                13.2621                13.0521
 IR Inten    --     46.9937                 3.4620                14.0206
  Atom  AN      X      Y      Z        X      Y      Z        X      Y      Z
     1   6     0.00  -0.00  -0.00     0.01   0.00  -0.00    -0.00   0.00   0.00
     2   7    -0.10  -0.01   0.00    -0.02   0.00   0.00     0.00  -0.01  -0.00
     3   6     0.07  -0.04  -0.01    -0.05   0.00   0.00     0.06  -0.01  -0.01
     4   8     0.01   0.03   0.01     0.02   0.02   0.00    -0.01  -0.01  -0.00
     5   6    -0.12  -0.16  -0.04     0.07  -0.34  -0.10    -0.33   0.18   0.07
     6   6     0.18  -0.01  -0.01     0.01   0.17   0.05     0.38  -0.09  -0.04
     7   6    -0.06   0.06   0.02    -0.14  -0.30  -0.08    -0.16  -0.01   0.01
     8   6    -0.04  -0.08  -0.02    -0.02   0.30   0.09     0.17  -0.12  -0.04
     9   6     0.18  -0.00  -0.01    -0.14  -0.16  -0.04    -0.36   0.02   0.02
    10   6    -0.11   0.16   0.05     0.24   0.35   0.09     0.30   0.03  -0.01
    11   6     0.08   0.03   0.00    -0.06   0.00   0.00    -0.05   0.00   0.00
    12   8     0.00  -0.03  -0.01     0.02  -0.02  -0.01     0.01  -0.00  -0.00
    13   1     0.20   0.08  -0.12    -0.00  -0.00   0.01     0.00   0.00  -0.00
    14   1     0.22   0.01   0.12    -0.01   0.00  -0.01     0.00   0.00   0.00
    15   1     0.02   0.01   0.00    -0.01  -0.01  -0.00     0.00   0.00   0.00
    16   1    -0.52   0.05   0.04     0.02   0.20   0.06    -0.41  -0.04   0.01
    17   1    -0.19  -0.09  -0.02     0.28   0.26   0.06    -0.09   0.13   0.04
    18   1    -0.20   0.23   0.07     0.25  -0.25  -0.08     0.05   0.19   0.05
    19   1    -0.52   0.06   0.04     0.10  -0.22  -0.07     0.39  -0.05  -0.03
                     43                     44                     45
                      A                      A                      A
 Frequencies --   1839.0479              1909.5130              3059.4038
 Red. masses --     12.9715                12.5329                 1.0347
 Frc consts  --     25.8480                26.9244                 5.7063
 IR Inten    --   1348.2899               161.0341                43.9524
  Atom  AN      X      Y      Z        X      Y      Z        X      Y      Z
     1   6    -0.00   0.02   0.01    -0.02   0.00   0.00    -0.05  -0.01  -0.00
     2   7    -0.01  -0.06  -0.02     0.02  -0.00  -0.00    -0.00   0.00   0.00
     3   6     0.31   0.49   0.13    -0.27  -0.51  -0.13     0.00  -0.00  -0.00
     4   8    -0.17  -0.32  -0.08     0.16   0.30   0.08     0.00   0.00   0.00
     5   6    -0.01  -0.06  -0.02     0.05   0.06   0.01    -0.00   0.00   0.00
     6   6    -0.02   0.02   0.01    -0.01  -0.01  -0.00     0.00   0.00   0.00
     7   6     0.01  -0.00  -0.00     0.00   0.01   0.00    -0.00   0.00   0.00
     8   6    -0.01   0.00   0.00    -0.00  -0.01  -0.00    -0.00  -0.00  -0.00
     9   6     0.02   0.01   0.00    -0.01   0.01   0.00     0.00  -0.00  -0.00
    10   6    -0.00  -0.07  -0.02     0.04  -0.06  -0.02    -0.00  -0.00  -0.00
    11   6    -0.20   0.53   0.16    -0.16   0.55   0.16     0.00   0.00   0.00
    12   8     0.10  -0.34  -0.10     0.09  -0.33  -0.10     0.00  -0.00  -0.00
    13   1     0.05   0.00  -0.01     0.08  -0.04  -0.06     0.26   0.12   0.56
    14   1     0.06  -0.00   0.01     0.09  -0.06   0.02     0.22   0.40  -0.43
    15   1    -0.06   0.02   0.01     0.10   0.05   0.01     0.10  -0.43  -0.13
    16   1     0.01   0.02   0.01     0.02  -0.02  -0.01    -0.00  -0.00  -0.00
    17   1     0.02   0.01   0.00    -0.01  -0.02  -0.00     0.00  -0.00  -0.00
    18   1    -0.01   0.01   0.00    -0.01   0.02   0.01     0.00   0.00   0.00
    19   1    -0.01   0.03   0.01     0.02   0.02   0.00     0.00   0.00   0.00
                     46                     47                     48
                      A                      A                      A
 Frequencies --   3154.2903              3189.0839              3209.4614
 Red. masses --      1.1092                 1.1065                 1.0879
 Frc consts  --      6.5022                 6.6305                 6.6024
 IR Inten    --     11.3843                 0.2321                 0.2864
  Atom  AN      X      Y      Z        X      Y      Z        X      Y      Z
     1   6    -0.00   0.03  -0.09    -0.00  -0.09  -0.03     0.00   0.00   0.00
     2   7     0.00  -0.00   0.00    -0.00   0.00   0.00    -0.00  -0.00  -0.00
     3   6     0.00  -0.00   0.00    -0.00  -0.00  -0.00    -0.00   0.00   0.00
     4   8     0.00   0.00  -0.00     0.00   0.00   0.00    -0.00  -0.00  -0.00
     5   6    -0.00   0.00  -0.00     0.00   0.00   0.00     0.00  -0.00  -0.00
     6   6    -0.00   0.00  -0.00    -0.00   0.00   0.00     0.00   0.03   0.01
     7   6    -0.00  -0.00   0.00    -0.00   0.00   0.00     0.05  -0.03  -0.01
     8   6    -0.00  -0.00   0.00     0.00  -0.00  -0.00    -0.05  -0.02  -0.00
     9   6     0.00  -0.00   0.00     0.00   0.00   0.00     0.00   0.02   0.01
    10   6    -0.00   0.00  -0.00     0.00   0.00   0.00    -0.00  -0.00  -0.00
    11   6    -0.00   0.00  -0.00     0.00  -0.00  -0.00     0.00   0.00   0.00
    12   8    -0.00  -0.00   0.00    -0.00   0.00   0.00    -0.00  -0.00  -0.00
    13   1     0.29   0.14   0.62     0.13   0.05   0.28    -0.00  -0.00  -0.00
    14   1    -0.25  -0.46   0.47     0.11   0.20  -0.22    -0.00  -0.00   0.00
    15   1    -0.00   0.01  -0.01    -0.20   0.83   0.25     0.00  -0.00  -0.00
    16   1    -0.00   0.00  -0.00    -0.00  -0.00  -0.00    -0.03  -0.31  -0.09
    17   1     0.00  -0.00   0.00     0.00  -0.00  -0.00    -0.53   0.35   0.13
    18   1     0.00  -0.00   0.00     0.00   0.00   0.00     0.56   0.24   0.04
    19   1    -0.00   0.00  -0.00    -0.00  -0.00  -0.00    -0.03  -0.29  -0.08
                     49                     50                     51
                      A                      A                      A
 Frequencies --   3218.1398              3225.4267              3231.4847
 Red. masses --      1.0916                 1.0963                 1.0999
 Frc consts  --      6.6608                 6.7200                 6.7671
 IR Inten    --      1.9511                 7.7376                12.2624
  Atom  AN      X      Y      Z        X      Y      Z        X      Y      Z
     1   6     0.00  -0.00  -0.00    -0.00  -0.00  -0.00     0.00  -0.00  -0.00
     2   7    -0.00   0.00   0.00     0.00  -0.00  -0.00    -0.00   0.00   0.00
     3   6     0.00   0.00   0.00    -0.00  -0.00  -0.00     0.00   0.00   0.00
     4   8    -0.00  -0.00  -0.00     0.00   0.00   0.00    -0.00  -0.00  -0.00
     5   6     0.00  -0.00  -0.00    -0.00   0.00   0.00     0.00  -0.00  -0.00
     6   6     0.00   0.04   0.01    -0.01  -0.06  -0.02     0.01   0.04   0.01
     7   6     0.03  -0.02  -0.01     0.03  -0.01  -0.00    -0.04   0.03   0.01
     8   6     0.04   0.02   0.00    -0.03  -0.01  -0.00    -0.05  -0.02  -0.00
     9   6    -0.01  -0.05  -0.01    -0.00  -0.05  -0.02    -0.00  -0.04  -0.01
    10   6     0.00   0.00   0.00     0.00   0.00   0.00     0.00   0.00   0.00
    11   6     0.00  -0.00  -0.00     0.00  -0.00  -0.00     0.00  -0.00  -0.00
    12   8    -0.00   0.00   0.00    -0.00   0.00   0.00    -0.00   0.00   0.00
    13   1    -0.00  -0.00  -0.00     0.00   0.00   0.00    -0.00  -0.00  -0.00
    14   1    -0.00  -0.00   0.00     0.00   0.00  -0.00    -0.00  -0.00   0.00
    15   1    -0.00   0.00   0.00    -0.00   0.00   0.00    -0.00   0.00   0.00
    16   1    -0.05  -0.51  -0.15     0.06   0.62   0.18    -0.04  -0.41  -0.12
    17   1    -0.35   0.24   0.08    -0.27   0.17   0.06     0.43  -0.29  -0.10
    18   1    -0.42  -0.18  -0.03     0.28   0.12   0.02     0.51   0.22   0.04
    19   1     0.06   0.53   0.15     0.06   0.59   0.17     0.04   0.44   0.12

 -------------------
 - Thermochemistry -
 -------------------
 Temperature   298.150 Kelvin.  Pressure   1.00000 Atm.
 Atom     1 has atomic number  6 and mass  12.00000
 Atom     2 has atomic number  7 and mass  14.00307
 Atom     3 has atomic number  6 and mass  12.00000
 Atom     4 has atomic number  8 and mass  15.99491
 Atom     5 has atomic number  6 and mass  12.00000
 Atom     6 has atomic number  6 and mass  12.00000
 Atom     7 has atomic number  6 and mass  12.00000
 Atom     8 has atomic number  6 and mass  12.00000
 Atom     9 has atomic number  6 and mass  12.00000
 Atom    10 has atomic number  6 and mass  12.00000
 Atom    11 has atomic number  6 and mass  12.00000
 Atom    12 has atomic number  8 and mass  15.99491
 Atom    13 has atomic number  1 and mass   1.00783
 Atom    14 has atomic number  1 and mass   1.00783
 Atom    15 has atomic number  1 and mass   1.00783
 Atom    16 has atomic number  1 and mass   1.00783
 Atom    17 has atomic number  1 and mass   1.00783
 Atom    18 has atomic number  1 and mass   1.00783
 Atom    19 has atomic number  1 and mass   1.00783
 Molecular mass:   161.04768 amu.
 Principal axes and moments of inertia in atomic units:
                           1         2         3
     Eigenvalues --  1036.510272087.502203112.42108
           X            0.99442   0.09614   0.04350
           Y           -0.08045   0.95747  -0.27709
           Z           -0.06830   0.27204   0.95986
 This molecule is an asymmetric top.
 Rotational symmetry number  1.
 Warning -- assumption of classical behavior for rotation
           may cause significant error
 Rotational temperatures (Kelvin)      0.08356     0.04149     0.02783
 Rotational constants (GHZ):           1.74117     0.86455     0.57985
 Zero-point vibrational energy     382856.5 (Joules/Mol)
                                   91.50489 (Kcal/Mol)
 Warning -- explicit consideration of  12 degrees of freedom as
           vibrations may cause significant error
 Vibrational temperatures:    108.98   159.76   198.82   238.91   346.34
          (Kelvin)            357.92   413.42   520.27   611.53   687.48
                              700.06   778.83   894.02  1005.20  1034.57
                             1049.16  1066.86  1182.09  1182.43  1274.71
                             1339.22  1452.13  1455.44  1503.84  1508.93
                             1514.21  1595.53  1671.23  1692.63  1723.44
                             1788.14  1863.34  1904.97  2038.03  2069.93
                             2122.79  2128.06  2162.06  2189.72  2194.04
                             2451.25  2454.07  2645.98  2747.36  4401.80
                             4538.32  4588.38  4617.70  4630.19  4640.67
                             4649.39
 
 Zero-point correction=                           0.145822 (Hartree/Particle)
 Thermal correction to Energy=                    0.155296
 Thermal correction to Enthalpy=                  0.156240
 Thermal correction to Gibbs Free Energy=         0.110645
 Sum of electronic and zero-point Energies=           -551.676458
 Sum of electronic and thermal Energies=              -551.666985
 Sum of electronic and thermal Enthalpies=            -551.666041
 Sum of electronic and thermal Free Energies=         -551.711636
 
                     E (Thermal)             CV                S
                      KCal/Mol        Cal/Mol-Kelvin    Cal/Mol-Kelvin
 Total                   97.450             35.747             95.962
 Electronic               0.000              0.000              0.000
 Translational            0.889              2.981             41.138
 Rotational               0.889              2.981             30.289
 Vibrational             95.672             29.785             24.535
 Vibration     1          0.599              1.965              3.998
 Vibration     2          0.607              1.940              3.251
 Vibration     3          0.614              1.915              2.829
 Vibration     4          0.624              1.884              2.480
 Vibration     5          0.658              1.778              1.798
 Vibration     6          0.662              1.765              1.739
 Vibration     7          0.685              1.697              1.490
 Vibration     8          0.736              1.551              1.115
 Vibration     9          0.787              1.416              0.875
 Vibration    10          0.834              1.299              0.716
 Vibration    11          0.843              1.280              0.693
 Vibration    12          0.896              1.159              0.562
                       Q            Log10(Q)             Ln(Q)
 Total Bot       0.127880D-50        -50.893196       -117.185916
 Total V=0       0.151480D+17         16.180356         37.256646
 Vib (Bot)       0.171365D-64        -64.766077       -149.129404
 Vib (Bot)    1  0.272070D+01          0.434680          1.000887
 Vib (Bot)    2  0.184410D+01          0.265783          0.611989
 Vib (Bot)    3  0.147217D+01          0.167957          0.386736
 Vib (Bot)    4  0.121519D+01          0.084643          0.194898
 Vib (Bot)    5  0.814300D+00         -0.089215         -0.205426
 Vib (Bot)    6  0.785013D+00         -0.105123         -0.242055
 Vib (Bot)    7  0.666479D+00         -0.176213         -0.405746
 Vib (Bot)    8  0.506333D+00         -0.295564         -0.680562
 Vib (Bot)    9  0.411519D+00         -0.385610         -0.887900
 Vib (Bot)   10  0.350670D+00         -0.455102         -1.047910
 Vib (Bot)   11  0.341789D+00         -0.466243         -1.073563
 Vib (Bot)   12  0.292321D+00         -0.534140         -1.229902
 Vib (V=0)       0.202990D+03          2.307475          5.313158
 Vib (V=0)    1  0.326626D+01          0.514050          1.183645
 Vib (V=0)    2  0.241068D+01          0.382139          0.879908
 Vib (V=0)    3  0.205476D+01          0.312761          0.720159
 Vib (V=0)    4  0.181403D+01          0.258645          0.595552
 Vib (V=0)    5  0.145555D+01          0.163029          0.375387
 Vib (V=0)    6  0.143072D+01          0.155556          0.358180
 Vib (V=0)    7  0.133318D+01          0.124890          0.287570
 Vib (V=0)    8  0.121160D+01          0.083359          0.191941
 Vib (V=0)    9  0.114757D+01          0.059779          0.137647
 Vib (V=0)   10  0.111071D+01          0.045601          0.105001
 Vib (V=0)   11  0.110566D+01          0.043620          0.100439
 Vib (V=0)   12  0.107918D+01          0.033095          0.076203
 Electronic      0.100000D+01          0.000000          0.000000
 Translational   0.803314D+08          7.904886         18.201672
 Rotational      0.928956D+06          5.967995         13.741816
 
                                                        Cavity NMPHTH solvent
                                                             IR Spectrum
 
   33333 3  3                                            1  1    11    1111111  1 1 1111111111                                       
   22221 1  0                                            9  8    77    5554444  3 2 2111100000  9 888 7776  6  5 44 4 3  222  111    
   32108 5  5                                            1  3    00    2207731  2 9 4976054410  3 822 4219  2  4 87 2 6  844  631 7  
   15899 4  9                                            0  9    64    5239596  4 5 3862929529  1 622 2999  1  1 78 5 2  791  681 6  
 
   XXXXX X  X                                            X  X    XX    XXXXXXX  X X XXXXX XXXX    XXX XXX   X  X X  X X  XX   X X    
                                                         X  X            XX                X          X                              
                                                            X             X                X                                         
                                                            X             X                                                          
                                                            X             X                                                          
                                                            X             X                                                          
                                                            X                                                                        
                                                            X                                                                        
                                                            X                                                                        
                                                            X                                                                        
                                                            X                                                                        
                                                            X                                                                        
                                                            X                                                                        
                                                            X                                                                        
                                                            X                                                                        
                                                            X                                                                        
                                                            X                                                                        
                                                            X                                                                        
                                                            X                                                                        
                                                            X                                                                        
 
 -------------------------------------------------------------------
 Center     Atomic                   Forces (Hartrees/Bohr)
 Number     Number              X              Y              Z
 -------------------------------------------------------------------
      1        6          -0.000001188   -0.000008760   -0.000001504
      2        7           0.000000198    0.000001031    0.000001173
      3        6          -0.000001037    0.000000312    0.000000568
      4        8          -0.000000089    0.000000373    0.000000852
      5        6           0.000001470    0.000000611    0.000000245
      6        6           0.000000926    0.000000737    0.000000474
      7        6           0.000000497    0.000001367    0.000000261
      8        6          -0.000000280    0.000001733   -0.000000067
      9        6          -0.000000653    0.000001202   -0.000000317
     10        6           0.000000225    0.000000243   -0.000000257
     11        6          -0.000000794    0.000001046   -0.000000285
     12        8          -0.000000184   -0.000000128   -0.000000213
     13        1          -0.000001914   -0.000002557   -0.000000096
     14        1          -0.000001247   -0.000001385    0.000000071
     15        1           0.000003631   -0.000001731   -0.000001235
     16        1           0.000001446    0.000000627    0.000000790
     17        1           0.000000840    0.000001919    0.000000463
     18        1          -0.000000540    0.000002230   -0.000000239
     19        1          -0.000001308    0.000001129   -0.000000683
 -------------------------------------------------------------------
 Cartesian Forces:  Max     0.000008760 RMS     0.000001604
 FormGI is forming the generalized inverse of G from B-inverse, IUseBI=4.
 Leave Link  716 at Wed Feb 28 19:51:46 2024, MaxMem=  2147483648 cpu:               5.9 elap:               0.2
 (Enter /software/gaussian-16RevA.03-el7-x86_64/g16/l103.exe)

 GradGradGradGradGradGradGradGradGradGradGradGradGradGradGradGradGradGrad
 Berny optimization.
 Red2BG is reusing G-inverse.
 Internal  Forces:  Max     0.000007496 RMS     0.000001240
 Step   1 in ReCalcFC=50 IGetFC= 4 recover analytic Hessian.
 Search for a local minimum.
 Step number   1 out of a maximum of    2
 All quantities printed in internal units (Hartrees-Bohrs-Radians)
 Second derivative matrix not updated -- analytic derivatives used.
 ITU=  0
     Eigenvalues ---    0.00042   0.00548   0.00982   0.01459   0.01530
     Eigenvalues ---    0.01772   0.01843   0.02122   0.02418   0.02682
     Eigenvalues ---    0.03015   0.03160   0.04337   0.04707   0.05963
     Eigenvalues ---    0.06186   0.10729   0.10824   0.12144   0.12491
     Eigenvalues ---    0.13453   0.15069   0.16206   0.17541   0.18256
     Eigenvalues ---    0.18905   0.19428   0.19878   0.22528   0.22755
     Eigenvalues ---    0.24205   0.26417   0.27977   0.33086   0.34116
     Eigenvalues ---    0.34331   0.34649   0.35404   0.35951   0.36442
     Eigenvalues ---    0.36527   0.36684   0.36760   0.40299   0.42414
     Eigenvalues ---    0.43057   0.48326   0.49897   0.52953   0.90013
     Eigenvalues ---    0.92148
 Angle between quadratic step and forces=  84.41 degrees.
 Linear search not attempted -- first point.
 Iteration  1 RMS(Cart)=  0.00025738 RMS(Int)=  0.00000009
 Iteration  2 RMS(Cart)=  0.00000009 RMS(Int)=  0.00000000
 ITry= 1 IFail=0 DXMaxC= 1.39D-03 DCOld= 1.00D+10 DXMaxT= 3.00D-01 DXLimC= 3.00D+00 Rises=F
 Variable       Old X    -DE/DX   Delta X   Delta X   Delta X     New X
                                 (Linear)    (Quad)   (Total)
    R1        2.72992  -0.00000   0.00000  -0.00000  -0.00000   2.72992
    R2        2.08176   0.00000   0.00000  -0.00000  -0.00000   2.08176
    R3        2.08173   0.00000   0.00000   0.00001   0.00001   2.08174
    R4        2.07693  -0.00000   0.00000  -0.00000  -0.00000   2.07693
    R5        2.63307  -0.00000   0.00000  -0.00001  -0.00001   2.63306
    R6        2.63714   0.00000   0.00000   0.00000   0.00000   2.63714
    R7        2.27986  -0.00000   0.00000  -0.00000  -0.00000   2.27986
    R8        2.82405   0.00000   0.00000   0.00000   0.00000   2.82405
    R9        2.61836  -0.00000   0.00000  -0.00000  -0.00000   2.61836
   R10        2.63223  -0.00000   0.00000   0.00000   0.00000   2.63223
   R11        2.64770  -0.00000   0.00000  -0.00000  -0.00000   2.64770
   R12        2.06487  -0.00000   0.00000  -0.00000  -0.00000   2.06487
   R13        2.64384   0.00000   0.00000   0.00000   0.00000   2.64384
   R14        2.06592  -0.00000   0.00000  -0.00000  -0.00000   2.06592
   R15        2.64770   0.00000   0.00000  -0.00000  -0.00000   2.64770
   R16        2.06588  -0.00000   0.00000  -0.00000  -0.00000   2.06588
   R17        2.61845   0.00000   0.00000   0.00000   0.00000   2.61845
   R18        2.06487  -0.00000   0.00000  -0.00000  -0.00000   2.06487
   R19        2.82450   0.00000   0.00000   0.00000   0.00000   2.82450
   R20        2.27932   0.00000   0.00000  -0.00000  -0.00000   2.27932
    A1        1.92875   0.00000   0.00000  -0.00002  -0.00002   1.92873
    A2        1.92875   0.00000   0.00000   0.00005   0.00005   1.92880
    A3        1.88182  -0.00001   0.00000  -0.00004  -0.00004   1.88178
    A4        1.90390  -0.00000   0.00000   0.00000   0.00000   1.90390
    A5        1.91015   0.00000   0.00000   0.00001   0.00001   1.91017
    A6        1.91028   0.00000   0.00000  -0.00001  -0.00001   1.91027
    A7        2.15275  -0.00000   0.00000  -0.00002  -0.00002   2.15273
    A8        2.16967   0.00000   0.00000   0.00002   0.00002   2.16969
    A9        1.96077   0.00000   0.00000   0.00000   0.00000   1.96077
   A10        2.18069  -0.00000   0.00000  -0.00001  -0.00001   2.18068
   A11        1.84836   0.00000   0.00000   0.00000   0.00000   1.84837
   A12        2.25413   0.00000   0.00000   0.00001   0.00001   2.25414
   A13        2.27684   0.00000   0.00000   0.00000   0.00000   2.27684
   A14        1.88376  -0.00000   0.00000  -0.00000  -0.00000   1.88376
   A15        2.12258   0.00000   0.00000   0.00000   0.00000   2.12259
   A16        2.04713   0.00000   0.00000   0.00000   0.00000   2.04713
   A17        2.11708  -0.00000   0.00000  -0.00000  -0.00000   2.11708
   A18        2.11897   0.00000   0.00000   0.00000   0.00000   2.11897
   A19        2.11344  -0.00000   0.00000  -0.00000  -0.00000   2.11344
   A20        2.08651  -0.00000   0.00000   0.00000   0.00000   2.08651
   A21        2.08323   0.00000   0.00000   0.00000   0.00000   2.08323
   A22        2.11331   0.00000   0.00000   0.00000   0.00000   2.11331
   A23        2.08328  -0.00000   0.00000  -0.00000  -0.00000   2.08328
   A24        2.08660   0.00000   0.00000   0.00000   0.00000   2.08660
   A25        2.04702  -0.00000   0.00000  -0.00000  -0.00000   2.04702
   A26        2.11916  -0.00000   0.00000  -0.00000  -0.00000   2.11916
   A27        2.11700   0.00000   0.00000   0.00000   0.00000   2.11700
   A28        2.12289  -0.00000   0.00000  -0.00000  -0.00000   2.12289
   A29        1.88626  -0.00000   0.00000   0.00000   0.00000   1.88626
   A30        2.27403   0.00000   0.00000  -0.00000  -0.00000   2.27403
   A31        1.84563  -0.00000   0.00000  -0.00000  -0.00000   1.84563
   A32        2.18936   0.00000   0.00000   0.00001   0.00001   2.18937
   A33        2.24819  -0.00000   0.00000  -0.00000  -0.00000   2.24819
    D1       -1.05483  -0.00000   0.00000   0.00076   0.00076  -1.05407
    D2        2.08614  -0.00000   0.00000   0.00079   0.00079   2.08693
    D3        1.05424   0.00000   0.00000   0.00078   0.00078   1.05502
    D4       -2.08798   0.00000   0.00000   0.00081   0.00081  -2.08717
    D5        3.14138   0.00000   0.00000   0.00078   0.00078  -3.14103
    D6       -0.00084   0.00000   0.00000   0.00080   0.00080  -0.00003
    D7       -0.00044   0.00000   0.00000   0.00002   0.00002  -0.00042
    D8        3.14103  -0.00000   0.00000   0.00001   0.00001   3.14104
    D9       -3.14147   0.00000   0.00000  -0.00000  -0.00000  -3.14148
   D10       -0.00001  -0.00000   0.00000  -0.00001  -0.00001  -0.00002
   D11       -3.14099   0.00000   0.00000  -0.00001  -0.00001  -3.14100
   D12        0.00065   0.00000   0.00000  -0.00002  -0.00002   0.00063
   D13        0.00005   0.00000   0.00000   0.00001   0.00001   0.00006
   D14       -3.14150   0.00000   0.00000   0.00001   0.00001  -3.14150
   D15       -3.14146   0.00000   0.00000   0.00001   0.00001  -3.14145
   D16       -0.00003   0.00000   0.00000   0.00001   0.00001  -0.00003
   D17       -0.00000  -0.00000   0.00000   0.00000   0.00000  -0.00000
   D18        3.14142  -0.00000   0.00000   0.00000   0.00000   3.14142
   D19        3.14144  -0.00000   0.00000  -0.00000  -0.00000   3.14144
   D20       -0.00016  -0.00000   0.00000  -0.00000  -0.00000  -0.00016
   D21        0.00003   0.00000   0.00000   0.00000   0.00000   0.00003
   D22       -3.14157   0.00000   0.00000   0.00000   0.00000  -3.14157
   D23       -3.14156  -0.00000   0.00000   0.00000   0.00000  -3.14156
   D24        0.00006  -0.00000   0.00000  -0.00000  -0.00000   0.00006
   D25       -0.00012  -0.00000   0.00000  -0.00000  -0.00000  -0.00012
   D26        3.14151  -0.00000   0.00000  -0.00000  -0.00000   3.14150
   D27        0.00006   0.00000   0.00000  -0.00000  -0.00000   0.00006
   D28       -3.14146   0.00000   0.00000  -0.00000  -0.00000  -3.14146
   D29       -3.14153   0.00000   0.00000  -0.00000  -0.00000  -3.14153
   D30        0.00014   0.00000   0.00000  -0.00000  -0.00000   0.00014
   D31       -0.00007  -0.00000   0.00000  -0.00000  -0.00000  -0.00007
   D32        3.14151   0.00000   0.00000  -0.00000  -0.00000   3.14151
   D33        3.14145  -0.00000   0.00000  -0.00000  -0.00000   3.14145
   D34       -0.00016   0.00000   0.00000  -0.00000  -0.00000  -0.00016
   D35       -0.00001  -0.00000   0.00000   0.00000   0.00000  -0.00001
   D36       -3.14158   0.00000   0.00000   0.00000   0.00000  -3.14158
   D37        3.14159  -0.00000   0.00000   0.00000   0.00000   3.14159
   D38        0.00003   0.00000   0.00000   0.00000   0.00000   0.00003
   D39        0.00011   0.00000   0.00000  -0.00000  -0.00000   0.00011
   D40       -3.14152   0.00000   0.00000   0.00000   0.00000  -3.14152
   D41       -3.14151   0.00000   0.00000  -0.00000  -0.00000  -3.14151
   D42        0.00004   0.00000   0.00000   0.00000   0.00000   0.00004
   D43       -0.00007  -0.00000   0.00000  -0.00000  -0.00000  -0.00007
   D44        3.14148  -0.00000   0.00000  -0.00000  -0.00000   3.14148
   D45        3.14156   0.00000   0.00000  -0.00001  -0.00001   3.14155
   D46       -0.00008  -0.00000   0.00000  -0.00000  -0.00000  -0.00008
         Item               Value     Threshold  Converged?
 Maximum Force            0.000007     0.000450     YES
 RMS     Force            0.000001     0.000300     YES
 Maximum Displacement     0.001391     0.001800     YES
 RMS     Displacement     0.000257     0.001200     YES
 Predicted change in Energy=-1.159835D-09
 Optimization completed.
    -- Stationary point found.
                           ----------------------------
                           !   Optimized Parameters   !
                           ! (Angstroms and Degrees)  !
 --------------------------                            --------------------------
 ! Name  Definition              Value          Derivative Info.                !
 --------------------------------------------------------------------------------
 ! R1    R(1,2)                  1.4446         -DE/DX =    0.0                 !
 ! R2    R(1,13)                 1.1016         -DE/DX =    0.0                 !
 ! R3    R(1,14)                 1.1016         -DE/DX =    0.0                 !
 ! R4    R(1,15)                 1.0991         -DE/DX =    0.0                 !
 ! R5    R(2,3)                  1.3934         -DE/DX =    0.0                 !
 ! R6    R(2,11)                 1.3955         -DE/DX =    0.0                 !
 ! R7    R(3,4)                  1.2064         -DE/DX =    0.0                 !
 ! R8    R(3,5)                  1.4944         -DE/DX =    0.0                 !
 ! R9    R(5,6)                  1.3856         -DE/DX =    0.0                 !
 ! R10   R(5,10)                 1.3929         -DE/DX =    0.0                 !
 ! R11   R(6,7)                  1.4011         -DE/DX =    0.0                 !
 ! R12   R(6,16)                 1.0927         -DE/DX =    0.0                 !
 ! R13   R(7,8)                  1.3991         -DE/DX =    0.0                 !
 ! R14   R(7,17)                 1.0932         -DE/DX =    0.0                 !
 ! R15   R(8,9)                  1.4011         -DE/DX =    0.0                 !
 ! R16   R(8,18)                 1.0932         -DE/DX =    0.0                 !
 ! R17   R(9,10)                 1.3856         -DE/DX =    0.0                 !
 ! R18   R(9,19)                 1.0927         -DE/DX =    0.0                 !
 ! R19   R(10,11)                1.4947         -DE/DX =    0.0                 !
 ! R20   R(11,12)                1.2062         -DE/DX =    0.0                 !
 ! A1    A(2,1,13)             110.509          -DE/DX =    0.0                 !
 ! A2    A(2,1,14)             110.5092         -DE/DX =    0.0                 !
 ! A3    A(2,1,15)             107.8205         -DE/DX =    0.0                 !
 ! A4    A(13,1,14)            109.0852         -DE/DX =    0.0                 !
 ! A5    A(13,1,15)            109.4438         -DE/DX =    0.0                 !
 ! A6    A(14,1,15)            109.4511         -DE/DX =    0.0                 !
 ! A7    A(1,2,3)              123.3434         -DE/DX =    0.0                 !
 ! A8    A(1,2,11)             124.3131         -DE/DX =    0.0                 !
 ! A9    A(3,2,11)             112.3436         -DE/DX =    0.0                 !
 ! A10   A(2,3,4)              124.9442         -DE/DX =    0.0                 !
 ! A11   A(2,3,5)              105.9035         -DE/DX =    0.0                 !
 ! A12   A(4,3,5)              129.1523         -DE/DX =    0.0                 !
 ! A13   A(3,5,6)              130.4534         -DE/DX =    0.0                 !
 ! A14   A(3,5,10)             107.9314         -DE/DX =    0.0                 !
 ! A15   A(6,5,10)             121.6152         -DE/DX =    0.0                 !
 ! A16   A(5,6,7)              117.2918         -DE/DX =    0.0                 !
 ! A17   A(5,6,16)             121.2999         -DE/DX =    0.0                 !
 ! A18   A(7,6,16)             121.4083         -DE/DX =    0.0                 !
 ! A19   A(6,7,8)              121.0913         -DE/DX =    0.0                 !
 ! A20   A(6,7,17)             119.5485         -DE/DX =    0.0                 !
 ! A21   A(8,7,17)             119.3603         -DE/DX =    0.0                 !
 ! A22   A(7,8,9)              121.0837         -DE/DX =    0.0                 !
 ! A23   A(7,8,18)             119.363          -DE/DX =    0.0                 !
 ! A24   A(9,8,18)             119.5533         -DE/DX =    0.0                 !
 ! A25   A(8,9,10)             117.2854         -DE/DX =    0.0                 !
 ! A26   A(8,9,19)             121.4192         -DE/DX =    0.0                 !
 ! A27   A(10,9,19)            121.2954         -DE/DX =    0.0                 !
 ! A28   A(5,10,9)             121.6327         -DE/DX =    0.0                 !
 ! A29   A(5,10,11)            108.0747         -DE/DX =    0.0                 !
 ! A30   A(9,10,11)            130.2926         -DE/DX =    0.0                 !
 ! A31   A(2,11,10)            105.7468         -DE/DX =    0.0                 !
 ! A32   A(2,11,12)            125.4413         -DE/DX =    0.0                 !
 ! A33   A(10,11,12)           128.8119         -DE/DX =    0.0                 !
 ! D1    D(13,1,2,3)           -60.4372         -DE/DX =    0.0                 !
 ! D2    D(13,1,2,11)          119.5273         -DE/DX =    0.0                 !
 ! D3    D(14,1,2,3)            60.4033         -DE/DX =    0.0                 !
 ! D4    D(14,1,2,11)         -119.6322         -DE/DX =    0.0                 !
 ! D5    D(15,1,2,3)          -180.0124         -DE/DX =    0.0                 !
 ! D6    D(15,1,2,11)           -0.048          -DE/DX =    0.0                 !
 ! D7    D(1,2,3,4)             -0.025          -DE/DX =    0.0                 !
 ! D8    D(1,2,3,5)            179.9677         -DE/DX =    0.0                 !
 ! D9    D(11,2,3,4)          -179.9932         -DE/DX =    0.0                 !
 ! D10   D(11,2,3,5)            -0.0006         -DE/DX =    0.0                 !
 ! D11   D(1,2,11,10)         -179.9652         -DE/DX =    0.0                 !
 ! D12   D(1,2,11,12)            0.0373         -DE/DX =    0.0                 !
 ! D13   D(3,2,11,10)            0.0027         -DE/DX =    0.0                 !
 ! D14   D(3,2,11,12)         -179.9948         -DE/DX =    0.0                 !
 ! D15   D(2,3,5,6)           -179.9925         -DE/DX =    0.0                 !
 ! D16   D(2,3,5,10)            -0.002          -DE/DX =    0.0                 !
 ! D17   D(4,3,5,6)             -0.0002         -DE/DX =    0.0                 !
 ! D18   D(4,3,5,10)           179.9903         -DE/DX =    0.0                 !
 ! D19   D(3,5,6,7)            179.9911         -DE/DX =    0.0                 !
 ! D20   D(3,5,6,16)            -0.0093         -DE/DX =    0.0                 !
 ! D21   D(10,5,6,7)             0.0016         -DE/DX =    0.0                 !
 ! D22   D(10,5,6,16)         -179.9987         -DE/DX =    0.0                 !
 ! D23   D(3,5,10,9)          -179.9982         -DE/DX =    0.0                 !
 ! D24   D(3,5,10,11)            0.0035         -DE/DX =    0.0                 !
 ! D25   D(6,5,10,9)            -0.0066         -DE/DX =    0.0                 !
 ! D26   D(6,5,10,11)          179.9951         -DE/DX =    0.0                 !
 ! D27   D(5,6,7,8)              0.0035         -DE/DX =    0.0                 !
 ! D28   D(5,6,7,17)          -179.9921         -DE/DX =    0.0                 !
 ! D29   D(16,6,7,8)          -179.9961         -DE/DX =    0.0                 !
 ! D30   D(16,6,7,17)            0.0082         -DE/DX =    0.0                 !
 ! D31   D(6,7,8,9)             -0.004          -DE/DX =    0.0                 !
 ! D32   D(6,7,8,18)           179.9952         -DE/DX =    0.0                 !
 ! D33   D(17,7,8,9)           179.9917         -DE/DX =    0.0                 !
 ! D34   D(17,7,8,18)           -0.0091         -DE/DX =    0.0                 !
 ! D35   D(7,8,9,10)            -0.0008         -DE/DX =    0.0                 !
 ! D36   D(7,8,9,19)          -179.9993         -DE/DX =    0.0                 !
 ! D37   D(18,8,9,10)          180.0            -DE/DX =    0.0                 !
 ! D38   D(18,8,9,19)            0.0015         -DE/DX =    0.0                 !
 ! D39   D(8,9,10,5)             0.006          -DE/DX =    0.0                 !
 ! D40   D(8,9,10,11)         -179.9961         -DE/DX =    0.0                 !
 ! D41   D(19,9,10,5)         -179.9955         -DE/DX =    0.0                 !
 ! D42   D(19,9,10,11)           0.0024         -DE/DX =    0.0                 !
 ! D43   D(5,10,11,2)           -0.0039         -DE/DX =    0.0                 !
 ! D44   D(5,10,11,12)         179.9935         -DE/DX =    0.0                 !
 ! D45   D(9,10,11,2)          179.9981         -DE/DX =    0.0                 !
 ! D46   D(9,10,11,12)          -0.0046         -DE/DX =    0.0                 !
 --------------------------------------------------------------------------------
 Step   1 in ReCalcFC=50 IGetFC= 0 compute gradient.
 GradGradGradGradGradGradGradGradGradGradGradGradGradGradGradGradGradGrad

 Leave Link  103 at Wed Feb 28 19:51:46 2024, MaxMem=  2147483648 cpu:               1.1 elap:               0.1
 (Enter /software/gaussian-16RevA.03-el7-x86_64/g16/l9999.exe)

 ----------------------------------------------------------------------

 Electric dipole moment (input orientation):
 (Debye = 10**-18 statcoulomb cm , SI units = C m)
                  (au)            (Debye)         (10**-30 SI)
   Tot        0.116394D+01      0.295845D+01      0.986833D+01
   x          0.115834D+01      0.294420D+01      0.982080D+01
   y         -0.840170D-01     -0.213550D+00     -0.712326D+00
   z         -0.771925D-01     -0.196204D+00     -0.654465D+00

 Dipole polarizability, Alpha (input orientation).
 (esu units = cm**3 , SI units = C**2 m**2 J**-1)
 Alpha(0;0):
               (au)            (10**-24 esu)      (10**-40 SI)
   iso        0.130636D+03      0.193582D+02      0.215389D+02
   aniso      0.105048D+03      0.155665D+02      0.173201D+02
   xx         0.171454D+03      0.254068D+02      0.282689D+02
   yx         0.115438D+01      0.171061D+00      0.190331D+00
   yy         0.151721D+03      0.224828D+02      0.250155D+02
   zx        -0.466868D+01     -0.691827D+00     -0.769761D+00
   zy         0.261498D+02      0.387500D+01      0.431151D+01
   zz         0.687316D+02      0.101850D+02      0.113323D+02

 ----------------------------------------------------------------------

 Dipole orientation:
     6         -0.00663542          0.04623545         -6.05784779
     7         -0.00744729          0.03913826         -3.32793699
     6          0.43904961         -2.11837630         -1.88613026
     8          0.86886332         -4.19026706         -2.73482280
     6          0.26777922         -1.29634745          0.81019460
     6          0.55073449         -2.66455595          3.02463425
     6          0.27794050         -1.35038882          5.30693322
     6         -0.25853000          1.23828727          5.33610452
     6         -0.54040037          2.60136507          3.08379695
     6         -0.26613581          1.28099850          0.83931947
     6         -0.44913557          2.16830059         -1.83593633
     8         -0.88328934          4.26425716         -2.61936518
     1          1.84964297         -0.54920366         -6.78819902
     1         -1.47077864         -1.23922980         -6.79097793
     1         -0.40861252          1.98382735         -6.68854567
     1          0.96957783         -4.68620957          2.99042825
     1          0.48729715         -2.36167017          7.09620824
     1         -0.46053696          2.21058640          7.14765285
     1         -0.95938520          4.62325099          3.09448963

 Electric dipole moment (dipole orientation):
 (Debye = 10**-18 statcoulomb cm , SI units = C m)
                  (au)            (Debye)         (10**-30 SI)
   Tot        0.116394D+01      0.295845D+01      0.986833D+01
   x          0.000000D+00      0.000000D+00      0.000000D+00
   y          0.000000D+00      0.000000D+00      0.000000D+00
   z          0.116394D+01      0.295845D+01      0.986833D+01

 Dipole polarizability, Alpha (dipole orientation).
 (esu units = cm**3 , SI units = C**2 m**2 J**-1)
 Alpha(0;0):
               (au)            (10**-24 esu)      (10**-40 SI)
   iso        0.130636D+03      0.193582D+02      0.215389D+02
   aniso      0.105048D+03      0.155665D+02      0.173201D+02
   xx         0.650221D+02      0.963529D+01      0.107207D+02
   yx        -0.195489D+02     -0.289686D+01     -0.322319D+01
   yy         0.155284D+03      0.230108D+02      0.256030D+02
   zx        -0.226604D+00     -0.335792D-01     -0.373619D-01
   zy         0.871777D+00      0.129184D+00      0.143737D+00
   zz         0.171600D+03      0.254285D+02      0.282930D+02

 ----------------------------------------------------------------------
 1\1\GINC-MIDWAY2-0621\Freq\RwB97XD\def2SVPP\C9H7N1O2\ALESSANDRI\28-Feb
 -2024\0\\#P Geom=AllCheck Guess=TCheck SCRF=Check GenChk RwB97XD/def2S
 VPP Freq\\Cavity NMPHTH solvent\\0,1\C,-3.1881409381,0.2554554591,0.21
 78600742\N,-1.7507543661,0.1474115806,0.1222105765\C,-1.0936493688,-1.
 0248196813,-0.2459395198\O,-1.6387647763,-2.0651812332,-0.5216482882\C
 ,0.365285606,-0.7022145254,-0.2189713255\C,1.4666734587,-1.4952650267,
 -0.4979615598\C,2.7308704813,-0.9020034361,-0.3841994056\C,2.868870902
 1,0.4372643966,-0.0038211164\C,1.7472969528,1.2291056337,0.2757307658\
 C,0.5027181455,0.6311969289,0.159630026\C,-0.8641410122,1.1928545148,0
 .3837836344\O,-1.1774282927,2.3080465349,0.7199764006\H,-3.6566716568,
 0.0455948472,-0.7568221963\H,-3.5795042463,-0.4525943918,0.9655473544\
 H,-3.4284775482,1.2827882439,0.5256984523\H,1.3528880078,-2.5407486788
 ,-0.7945584042\H,3.6252518872,-1.493986446,-0.5958756137\H,3.868963143
 8,0.8714903582,0.0761249498\H,1.8487136201,2.2756039214,0.5732361957\\
 Version=ES64L-G16RevA.03\HF=-551.8222807\RMSD=3.804e-09\RMSF=1.604e-06
 \ZeroPoint=0.1458223\Thermal=0.1552958\Dipole=1.1583386,-0.084017,-0.0
 771925\DipoleDeriv=0.7799809,0.0098549,-0.0212764,-0.0867948,0.0743071
 ,-0.0433633,-0.0485875,-0.0472775,0.2250301,-1.4980135,-0.1022043,0.02
 4524,-0.0332077,-1.7919334,-0.4252803,0.0444603,-0.4223907,-0.4371339,
 1.861572,0.1482308,-0.022399,0.1604843,2.370348,0.5530955,-0.018741,0.
 5542182,0.5904938,-1.0469011,-0.5291666,-0.1255031,-0.3995688,-1.54357
 82,-0.2975763,-0.0885018,-0.2922876,-0.5307156,-0.6083537,-0.2435689,-
 0.0450272,-0.2117999,-0.0684254,0.0048143,-0.0357414,0.0063423,-0.0491
 866,-0.1329638,0.1226142,0.0376449,-0.0633757,0.1413498,0.0675201,-0.0
 163676,0.0598467,-0.064616,0.1013567,-0.1192294,-0.0448431,-0.0544609,
 -0.0640845,0.0198475,-0.0250461,0.0225162,-0.1169599,0.1296573,0.08749
 21,0.0136681,0.0258475,-0.0859421,0.0104641,-0.0043532,0.0076312,-0.12
 37872,-0.1288161,-0.0632959,-0.0157971,0.120743,0.1424097,0.0584659,0.
 037325,0.0667871,-0.062073,-0.4993166,0.3060062,0.108777,0.2831549,-0.
 1483817,-0.0419983,0.1024989,-0.0436307,-0.0642837,1.8517261,0.0719008
 ,-0.0449591,0.0386838,2.4289026,0.5825589,-0.0549711,0.5815101,0.57701
 24,-0.8903369,0.3504962,0.1212988,0.2438854,-1.7088148,-0.3765071,0.09
 10184,-0.3821233,-0.5585505,-0.080185,0.0043034,-0.0011359,-0.0313966,
 0.1139547,-0.0370016,-0.0891753,-0.0218536,-0.0584995,-0.0729445,0.007
 802,0.0079701,-0.0684204,0.0367721,0.1042032,0.0631329,0.0838773,0.011
 9922,0.0645395,-0.0349652,-0.0074073,0.0923335,0.0073101,-0.0379142,0.
 0292383,-0.0323903,0.1135204,0.1249486,-0.0352179,-0.0091569,0.0024178
 ,-0.0217071,-0.0482096,0.0018453,-0.0467275,0.1313861,-0.0256502,0.078
 399,0.0305341,0.0793943,0.0575842,-0.029977,0.0306603,-0.0299356,0.139
 4756,-0.0559251,-0.0631507,-0.0089662,-0.0644897,0.081425,-0.016534,-0
 .00987,-0.0166156,0.1448049,0.1256257,0.0036992,0.0020543,-0.0334301,-
 0.0214962,-0.0466078,-0.0088244,-0.0474966,0.1320904\Polar=171.4537898
 ,1.1543765,151.7212406,-4.6686807,26.1497682,68.7315676\Quadrupole=9.7
 913581,-7.992275,-1.7990831,-1.7291284,-1.0003604,-1.8514463\PG=C01 [X
 (C9H7N1O2)]\NImag=0\\0.51672902,0.01474952,0.62790157,0.00778867,0.008
 59719,0.59771235,-0.25118155,0.00404997,0.00943882,0.79470715,0.007480
 47,-0.11023841,-0.01290680,-0.00366153,0.59231448,0.01040588,-0.012764
 84,-0.07063829,-0.03211727,0.14013395,0.14900266,-0.02033314,0.0313462
 1,0.00998351,-0.19886861,0.04593849,0.01929716,0.66234669,0.01885179,0
 .00310395,-0.00009893,0.06732889,-0.15878770,-0.02991393,0.23599400,0.
 91159329,0.00638984,-0.00068018,0.00006207,0.02544265,-0.02895780,-0.0
 7499578,0.04743586,0.19269651,0.26027319,0.00062622,-0.00014586,-0.000
 20471,0.03146147,0.00201653,0.00007119,-0.25728422,-0.26511702,-0.0681
 5941,0.24751457,-0.00985951,0.00208243,0.00187759,-0.01919603,-0.10447
 540,-0.03510100,-0.27281644,-0.58149159,-0.13428725,0.30773520,0.68599
 902,-0.00301058,0.00144777,-0.00245119,-0.00605709,-0.03606490,0.00994
 677,-0.07038685,-0.13464717,-0.10910359,0.07906319,0.17450467,0.080009
 27,0.00334478,0.00179274,0.00051301,-0.04792681,0.01913292,0.00839360,
 -0.19841864,0.00587564,0.00725322,-0.01784603,-0.02905110,-0.00672054,
 0.72469079,-0.00106484,-0.00512949,-0.00234909,0.03331448,0.00073826,-
 0.00584829,-0.01928588,-0.10440663,-0.00712794,-0.04666504,-0.01029264
 ,-0.00627443,-0.08851480,0.69163151,-0.00031581,-0.00248460,0.00249044
 ,0.01257204,-0.00523421,0.01383347,0.00000238,-0.00821428,-0.07894901,
 -0.01180676,-0.00707069,0.01727153,-0.05226232,0.16319868,0.18914979,0
 .00009689,0.00149932,0.00046711,-0.00102844,-0.00599748,-0.00167591,-0
 .02283069,0.01343567,0.00495164,0.00310648,0.00116501,0.00016155,-0.27
 621185,0.08496691,0.03402031,0.67918275,0.00054348,0.00115694,0.000078
 73,-0.00658717,0.00277982,0.00102857,0.00111421,0.01537346,0.00413372,
 -0.00141093,-0.00313661,-0.00055795,0.14231219,-0.21659647,-0.05023409
 ,-0.00135766,0.73162147,0.00019200,0.00003399,0.00080637,-0.00184769,0
 .00101112,0.00062334,0.00140553,0.00356751,0.00181657,-0.00059272,-0.0
 0067712,-0.00111477,0.05059691,-0.04762785,-0.08080262,-0.02454852,0.1
 6907053,0.19571127,0.00038662,-0.00007705,-0.00004816,-0.00418501,0.00
 054012,0.00030943,0.00004580,0.00717030,0.00245311,0.00091087,-0.00100
 950,-0.00038211,-0.05873199,0.03805179,0.01416588,-0.30561901,-0.11838
 636,-0.02340577,0.73195185,0.00007715,-0.00066230,-0.00014099,-0.00118
 122,0.00213884,0.00089718,0.00385680,-0.00026624,-0.00268824,0.0004592
 3,0.00075513,0.00050731,-0.01355438,0.06683303,0.01682602,-0.04645928,
 -0.16811308,-0.02627427,-0.02826714,0.66288363,-0.00000564,-0.00013291
 ,-0.00022923,-0.00017871,0.00081664,-0.00053361,0.00148795,-0.00284348
 ,0.00755648,0.00004191,0.00057819,-0.00091646,-0.00074999,0.01446786,0
 .01492094,-0.00265291,-0.02303381,-0.07617529,-0.03475985,0.14987475,0
 .19320560,0.00029573,-0.00053225,-0.00018388,-0.00377310,0.00078400,0.
 00036509,0.00002365,0.00200244,0.00052670,0.00047260,0.00052835,0.0001
 4329,-0.01283107,0.02815761,0.00835144,0.02923713,-0.03293733,-0.01044
 547,-0.13840856,-0.05781558,-0.01362022,0.74506214,-0.00019092,0.00020
 637,0.00017017,0.00226397,0.00141456,0.00049776,0.00475036,-0.00403635
 ,-0.00103955,-0.00204148,-0.00066113,-0.00018478,0.02231519,-0.0616699
 7,-0.01626419,-0.08469802,-0.01094768,-0.00179841,0.01633860,-0.325556
 13,-0.07439458,0.03518092,0.65279359,-0.00008346,0.00018498,-0.0002933
 7,0.00079238,0.00056656,-0.00054273,0.00132176,-0.00091681,-0.00149853
 ,-0.00059860,-0.00030297,0.00024093,0.00666859,-0.01652823,-0.01389127
 ,-0.02538530,-0.00413755,0.00857553,0.00778211,-0.07105229,-0.09132746
 ,-0.01694914,0.14397416,0.19067590,-0.00010508,0.00003907,0.00007166,0
 .00167056,0.00568502,0.00156508,0.01038337,-0.00282138,-0.00098396,-0.
 00243724,-0.00150889,-0.00037287,0.01731123,-0.08281245,-0.02424756,-0
 .07472567,0.00834644,0.00549339,0.05134034,0.07345941,0.01926442,-0.26
 846128,0.05930611,0.02611877,0.68574019,-0.00031079,0.00132473,0.00005
 862,0.00692720,0.00062493,-0.00012360,0.00204945,-0.00711713,-0.004055
 25,-0.00248461,0.00019612,0.00047948,-0.03126512,-0.01244567,-0.005020
 69,0.00453176,0.00010400,0.00180632,0.02175368,-0.02871272,-0.01175821
 ,0.13123637,-0.19816649,-0.04301126,0.03201876,0.72603615,-0.00003220,
 0.00004349,0.00117808,0.00192454,-0.00007514,-0.00014499,0.00040613,-0
 .00383264,0.00549555,-0.00065420,0.00043735,-0.00092688,-0.00935218,-0
 .00267581,0.00954365,0.00439647,0.00163453,-0.00660951,0.00432595,-0.0
 1412714,0.00432940,0.04687622,-0.03975320,-0.08331425,-0.01520023,0.16
 597048,0.19451586,0.00299343,-0.00447741,-0.00123842,-0.05751463,-0.00
 987228,0.00042555,-0.01978017,-0.02915489,-0.00750898,-0.00653065,-0.0
 0198559,-0.00021162,-0.11635398,0.01007072,0.00518740,0.03899201,0.021
 78603,0.00494606,-0.02490396,-0.03087040,-0.00818536,-0.05878422,0.037
 10029,0.01387663,-0.32055857,-0.13074311,-0.02610890,0.76256314,-0.000
 55427,-0.00373470,-0.00225852,-0.02365046,0.00767313,-0.00098262,-0.02
 500206,-0.01456282,-0.00326414,0.00351044,0.00392170,0.00049524,-0.053
 61215,-0.31933493,-0.07019605,0.07331425,-0.02987635,-0.01478483,-0.03
 658801,-0.05153933,-0.01067167,-0.01465663,0.06691690,0.01690011,-0.07
 334284,-0.18011386,-0.02989843,0.09748056,0.66121072,-0.00009847,-0.00
 207370,0.00356571,-0.00358169,-0.00160562,0.01443064,-0.00634874,-0.00
 305861,0.00000437,0.00137605,0.00073208,0.00179528,-0.01317816,-0.0730
 4661,-0.08828174,0.01984082,-0.01242624,0.00527302,-0.00983500,-0.0109
 2768,-0.01153906,-0.00107627,0.01454130,0.01494236,-0.00953384,-0.0273
 1189,-0.07235723,-0.00027352,0.14585021,0.18276793,-0.02894723,-0.0217
 0364,-0.00515949,-0.21754460,-0.03756249,-0.00361320,0.05466020,-0.041
 01855,-0.01480832,-0.00448686,0.02693463,0.00831844,-0.00879011,0.0229
 9209,0.00708960,0.00989321,-0.00545667,-0.00171971,-0.00144449,-0.0052
 8112,-0.00152163,-0.00229423,-0.00399014,-0.00065825,-0.02459885,0.006
 26087,0.00295895,-0.19233599,0.03340013,0.01501414,0.57502088,-0.01629
 051,0.01551883,0.00637606,-0.05631721,-0.14086110,-0.02104172,0.012759
 88,-0.08754114,-0.02273411,0.00560252,0.02209067,0.00405615,0.02787379
 ,-0.02293422,-0.00812230,-0.00062347,-0.00667703,-0.00382027,-0.002595
 05,-0.00282757,-0.00034846,-0.00717925,0.00172127,-0.00162094,-0.00587
 992,0.01645314,0.00478178,0.00857216,-0.10941601,-0.00966815,-0.154341
 01,0.97674535,-0.00362744,0.00663641,-0.00203451,-0.00901862,-0.021856
 16,-0.06511048,0.00073933,-0.02034402,-0.01682771,0.00215077,0.0030799
 1,0.00800777,0.00854953,-0.00791077,-0.00187183,-0.00033589,-0.0035910
 0,0.00559019,-0.00073742,-0.00022889,-0.00121913,-0.00157459,-0.001763
 77,0.00801680,-0.00055849,0.00421883,0.00211461,0.00781624,-0.01075310
 ,-0.08077034,-0.06151627,0.22978042,0.27483072,0.00066373,0.00165349,0
 .00039005,0.02810266,-0.03046556,-0.00920143,-0.01047192,0.00115357,0.
 00114368,0.00236512,-0.00334504,-0.00115597,-0.00636602,-0.00150787,-0
 .00007599,-0.00158595,0.00284185,0.00084133,0.00070771,0.00178790,0.00
 050277,0.00105287,-0.00038009,-0.00020964,0.00288235,0.00035407,-0.000
 07648,-0.00247868,0.04416061,0.01372043,-0.16173941,0.17221380,0.05371
 713,0.14425294,0.01064391,-0.00245495,-0.00077177,-0.01104948,-0.10096
 168,-0.03415278,-0.02076999,0.02714829,0.00669201,-0.00046975,-0.01604
 184,-0.00409701,0.00393175,0.00393827,0.00051375,0.00186382,-0.0005387
 6,0.00006603,-0.00080802,-0.00088687,-0.00031465,0.00100651,0.00064250
 ,0.00045048,-0.00241846,-0.00288469,-0.00046362,0.02628775,-0.02348053
 ,-0.01343454,0.18044911,-0.65737054,-0.17695841,-0.18518356,0.77107520
 ,0.00297962,-0.00038115,-0.00167071,-0.00360219,-0.03327982,0.00961763
 ,-0.00519759,0.00569258,0.00914465,-0.00032800,-0.00396270,-0.00293462
 ,0.00149531,0.00076681,0.00168523,0.00056572,0.00001483,-0.00105655,-0
 .00025031,-0.00042949,0.00019817,0.00019255,0.00051041,-0.00093148,-0.
 00086187,-0.00058381,-0.00107936,0.00856375,-0.01425398,0.01444843,0.0
 5608645,-0.17654811,-0.12674080,-0.05854926,0.22155164,0.09988046,-0.0
 8907941,-0.02002177,-0.09292970,-0.02993015,-0.00870891,-0.02935162,0.
 00147064,-0.00497227,-0.00160884,0.00093355,0.00195427,0.00044770,-0.0
 0074205,-0.00016830,0.00030800,0.00033004,-0.00019108,0.00004314,-0.00
 026196,-0.00020945,-0.00007021,-0.00027577,0.00024743,0.00000433,0.000
 27243,0.00030636,0.00035500,-0.00140201,-0.00091653,0.00077285,-0.0001
 8293,0.00723783,-0.00082314,0.00076121,-0.00181217,-0.00073036,0.10875
 211,-0.02231031,-0.06118630,-0.04780700,0.00256928,0.00104185,0.003328
 26,0.00106203,0.00070042,0.00076861,-0.00088577,0.00009883,-0.00008568
 ,0.00011380,0.00006866,-0.00027279,-0.00022228,0.00002156,-0.00002151,
 0.00010580,0.00014263,0.00005492,0.00008716,-0.00015618,-0.00005206,-0
 .00022008,0.00000962,0.00001111,0.00019662,0.00001981,-0.00012481,-0.0
 0019519,-0.00098498,-0.00068007,-0.00079090,0.00032393,0.00048702,0.02
 394446,0.05513048,-0.09940341,-0.04763504,-0.27427773,0.00053675,0.001
 88324,0.01154331,0.00027063,-0.00164909,0.00044382,0.00044928,0.000621
 28,-0.00008589,-0.00008315,0.00029249,-0.00041801,-0.00003797,-0.00005
 842,-0.00002561,-0.00000691,0.00002216,0.00001999,0.00001795,-0.000006
 53,0.00001812,0.00001436,-0.00000279,-0.00002136,-0.00002725,0.0002144
 9,-0.00023185,0.00139017,0.00050890,-0.00005544,-0.00033313,-0.0001378
 4,-0.00000587,0.10653505,0.05109587,0.28252020,-0.07530139,-0.05468131
 ,0.05724501,-0.02742644,-0.02424741,0.02316212,0.00146218,-0.00491941,
 -0.00131391,0.00085624,0.00190623,0.00057403,-0.00075780,-0.00000066,-
 0.00031930,0.00031675,-0.00012359,-0.00016456,-0.00025571,-0.00021882,
 -0.00002814,-0.00026659,0.00020035,0.00015064,0.00024101,0.00045465,-0
 .00015959,-0.00147127,-0.00040271,-0.00104454,-0.00008535,0.00559268,0
 .00452577,0.00078192,-0.00186855,-0.00041097,0.00563201,0.00919053,-0.
 00775377,0.09336545,-0.06005795,-0.16804134,0.12380877,0.00110579,0.00
 586244,-0.00620891,0.00099389,0.00016303,-0.00100934,-0.00045971,0.000
 31294,0.00039294,0.00007629,-0.00005989,0.00048419,-0.00019780,-0.0000
 3545,0.00003323,0.00007823,0.00013946,0.00001479,0.00007644,-0.0001266
 0,-0.00004687,-0.00017202,0.00001056,0.00001653,0.00014060,-0.00001587
 ,0.00022516,0.00061580,-0.00066489,0.00026569,-0.00085812,0.00032872,-
 0.00017543,0.00315765,0.00560399,-0.00591904,0.06497562,0.16945772,0.0
 6153220,0.12327040,-0.18120282,0.00379790,-0.00313283,0.00418904,0.000
 27537,0.00194112,0.00100571,-0.00092251,-0.00054882,-0.00024755,0.0001
 6659,-0.00006617,-0.00027410,-0.00011170,0.00006420,0.00004463,0.00008
 304,0.00007467,0.00001717,0.00005436,-0.00010468,-0.00002008,-0.000151
 19,-0.00002059,0.00000823,0.00023070,-0.00004071,-0.00012335,-0.001260
 73,-0.00145911,-0.00051143,-0.00022135,0.00053270,-0.00002468,0.009260
 60,0.01854755,-0.01536439,-0.06789596,-0.13231359,0.18362659,-0.060454
 82,0.04648852,0.01387461,-0.01546267,0.03880441,0.01184819,-0.00528049
 ,-0.00446421,-0.00105189,0.00141443,0.00023491,0.00001042,-0.00088164,
 0.00173645,0.00055464,-0.00017176,-0.00051865,-0.00014178,-0.00017709,
 0.00001105,0.00001021,-0.00005395,0.00008566,0.00002735,0.00006820,-0.
 00014674,-0.00004678,0.00023925,-0.00005469,-0.00002735,0.00003322,0.0
 0455097,0.00138070,0.00181137,-0.00176955,-0.00059409,0.00381139,-0.01
 263747,-0.00155665,0.00299574,-0.00946086,-0.00484963,0.07217211,0.058
 30192,-0.30006562,-0.07471736,0.00398935,0.00039158,0.00035734,-0.0008
 7016,0.00107121,0.00037382,0.00005439,-0.00006836,-0.00006395,0.000235
 15,-0.00009242,-0.00011944,0.00002279,-0.00000983,-0.00000820,0.000006
 67,-0.00002603,0.00000056,0.00002793,0.00002547,0.00000513,0.00000468,
 -0.00009610,-0.00001731,0.00020358,-0.00003059,-0.00003804,-0.00176168
 ,-0.00228414,-0.00097464,-0.00164218,0.00070801,0.00055891,0.00011887,
 -0.00083837,0.00076993,0.00411683,-0.01293352,-0.00674653,-0.06282767,
 0.31424339,0.01730808,-0.07414441,-0.07297448,0.00178628,-0.00120378,-
 0.00188325,-0.00001782,0.00053712,0.00006780,-0.00004128,-0.00007224,0
 .00012156,0.00012009,-0.00018665,0.00022483,0.00001471,0.00001570,0.00
 002008,0.00000866,0.00000077,-0.00002980,0.00001076,0.00000218,0.00000
 400,-0.00000352,-0.00001047,-0.00003978,0.00005119,-0.00002284,0.00004
 938,-0.00043661,-0.00127328,0.00105965,-0.00057295,0.00055960,-0.00086
 189,0.00778884,-0.02524510,-0.00405047,-0.00659364,0.02042113,0.008883
 03,-0.01943176,0.08062306,0.06939680,-0.00002695,-0.00007477,-0.000014
 95,0.00015702,-0.00059378,-0.00016720,0.00069769,0.00062630,-0.0000627
 6,0.00039377,-0.00082315,-0.00022934,0.00907292,0.02433268,0.00677953,
 -0.06284665,-0.02724715,-0.00689254,0.00290650,-0.02724954,-0.00776624
 ,-0.00461755,-0.00140177,0.00013531,-0.00088933,0.00001824,0.00001345,
 -0.00414515,0.00160514,0.00101690,0.00122283,0.00127977,0.00033894,-0.
 00073576,0.00027256,0.00009454,-0.00001009,0.00000565,-0.00000399,-0.0
 0001172,0.00000431,0.00000731,0.00003034,0.00000034,-0.00000098,0.0573
 5075,-0.00012122,0.00006077,-0.00001326,0.00037584,0.00012242,-0.00006
 286,-0.00176137,-0.00106612,0.00112693,0.00075281,0.00092933,0.0000805
 2,-0.00331847,-0.01104134,-0.00408913,-0.02855924,-0.32236440,-0.07993
 585,0.00216786,-0.00568144,-0.00314104,-0.00189965,0.00142770,-0.00161
 066,0.00004169,0.00047412,0.00033487,0.00277947,0.00106094,-0.00215460
 ,-0.00104009,-0.00041423,-0.00022603,0.00051324,-0.00035152,-0.0000125
 1,0.00002963,0.00000953,0.00000667,0.00004094,0.00000188,-0.00000273,0
 .00000697,-0.00000942,-0.00000488,0.02978076,0.33712070,-0.00002832,-0
 .00001481,0.00012155,0.00011544,-0.00001832,0.00027269,-0.00075925,0.0
 0101012,-0.00435637,0.00022749,0.00015741,0.00056466,-0.00120339,-0.00
 534751,0.00215350,-0.00726426,-0.08000003,-0.06368170,0.00070775,-0.00
 180239,0.00428262,-0.00000390,-0.00163277,0.00683548,0.00002212,0.0003
 3602,-0.00059662,0.00135819,-0.00210444,0.00741844,-0.00033270,-0.0003
 2874,0.00045058,0.00016357,-0.00000102,-0.00039815,0.00003060,-0.00001
 330,-0.00001007,-0.00000975,0.00001963,-0.00000109,0.00000096,-0.00000
 464,0.00000514,0.00722984,0.08817194,0.05208929,0.00015114,0.00012198,
 0.00002227,-0.00073046,0.00021681,0.00009772,0.00087802,0.00125021,0.0
 0033317,-0.00039222,-0.00042331,-0.00010101,-0.00413759,-0.00326253,-0
 .00044196,-0.01658959,0.01705351,0.00590010,-0.25239627,0.12713492,0.0
 4634306,0.00677988,-0.00498225,-0.00151587,0.00098903,-0.00132008,-0.0
 0009317,0.00018195,-0.00074695,-0.00024964,0.00004410,-0.00035999,-0.0
 0015181,-0.00012096,0.00029416,0.00009617,-0.00003124,-0.00000680,-0.0
 0000605,-0.00002882,-0.00001121,0.00000364,-0.00005697,0.00000892,0.00
 000490,0.00134279,0.00011672,-0.00021231,0.26328807,-0.00000040,0.0000
 7191,0.00006293,-0.00015615,0.00006015,0.00000951,-0.00036948,0.000611
 45,0.00010048,0.00005568,-0.00004036,-0.00003420,-0.00296075,0.0000504
 2,-0.00183177,-0.01306531,0.01109863,0.00238866,0.12704137,-0.14290283
 ,-0.03514650,0.02542249,-0.01038888,-0.00557675,-0.00150165,-0.0040608
 6,-0.00320608,-0.00088220,-0.00067632,0.00002448,-0.00024968,-0.000067
 10,0.00028074,0.00011266,-0.00001451,-0.00004518,0.00001267,-0.0000040
 0,-0.00000399,0.00000160,0.00000441,0.00000097,-0.00002612,-0.00000002
 ,0.00000255,0.00067585,0.00026930,0.00127202,-0.13517377,0.14572707,-0
 .00001334,0.00005724,-0.00012857,-0.00001082,-0.00000797,0.00005018,-0
 .00013089,0.00002832,0.00033147,0.00003654,-0.00001300,0.00006474,-0.0
 0034994,-0.00181492,0.00634732,-0.00279010,0.00102147,0.00531462,0.046
 32404,-0.03515133,-0.05354380,0.00724847,-0.00418833,0.00338378,-0.000
 14817,-0.00321285,0.00635974,-0.00029600,0.00002228,-0.00060882,-0.000
 11743,0.00028509,-0.00091183,0.00004293,-0.00005196,0.00010488,-0.0000
 1566,0.00001463,0.00000924,0.00002275,-0.00001625,-0.00000132,-0.00000
 513,0.00000100,-0.00000428,-0.00005952,0.00128899,-0.00383451,-0.04980
 126,0.04033980,0.04128392,0.00013166,-0.00010760,-0.00004680,-0.000727
 28,-0.00008320,0.00001332,0.00018045,0.00036039,0.00005052,-0.00020321
 ,-0.00026693,-0.00006197,0.00047155,0.00055204,0.00010906,0.00130218,-
 0.00002501,0.00026292,0.00193342,0.00226782,0.00079398,-0.30072115,-0.
 10467547,-0.01845444,-0.01643125,-0.01218219,-0.00255461,-0.00278744,0
 .00347512,0.00144173,0.00068341,-0.00124518,-0.00037638,-0.00031123,0.
 00046144,0.00015142,-0.00005839,-0.00000594,-0.00000143,-0.00005381,-0
 .00000812,0.00000282,0.00000873,0.00001690,0.00000495,0.00000691,0.000
 10314,0.00002175,0.00061214,-0.00004638,-0.00023940,0.31478578,-0.0000
 0178,0.00007736,0.00008659,0.00028841,0.00005859,-0.00002750,0.0002516
 5,-0.00016512,0.00022838,-0.00008638,0.00004818,-0.00002108,0.00068137
 ,-0.00091962,-0.00010902,0.00015508,-0.00430250,-0.00334697,-0.0280689
 3,-0.00648265,-0.00201521,-0.10467824,-0.10402515,-0.01332597,0.017970
 40,0.01097989,0.00094524,0.00315216,-0.00102744,-0.00242056,0.00037604
 ,0.00075005,0.00010796,-0.00001443,-0.00010140,-0.00004790,0.00003262,
 -0.00000178,-0.00000456,0.00000611,0.00000289,-0.00000136,-0.00001331,
 -0.00000393,-0.00000357,-0.00121555,-0.00036865,-0.00000371,0.00030040
 ,0.00080048,0.00149435,0.11150613,0.10426644,-0.00001598,0.00009128,-0
 .00019493,0.00011840,-0.00001019,0.00010056,0.00002271,0.00022517,-0.0
 0092809,-0.00001032,-0.00001384,0.00013072,0.00014586,-0.00010470,-0.0
 0068933,0.00031603,-0.00334185,0.00629550,-0.00797255,-0.00339845,0.00
 429890,-0.01843291,-0.01332434,-0.04427006,0.00613756,0.00230610,0.005
 27346,0.00134776,-0.00243161,0.00610187,0.00009325,0.00017924,0.000363
 56,0.00001227,-0.00006757,0.00004488,-0.00003769,0.00000659,0.00001147
 ,0.00005432,-0.00001030,0.00000246,-0.00000381,-0.00000488,0.00000926,
 -0.00035774,-0.00006177,-0.00017171,-0.00014951,0.00151588,-0.00400452
 ,0.01915565,0.01710138,0.03143335,0.00001035,0.00008085,0.00003141,0.0
 0020086,0.00059388,0.00017230,0.00111917,-0.00158147,-0.00048231,-0.00
 087487,-0.00017310,-0.00002869,-0.00489571,-0.00089239,0.00032943,-0.0
 0084781,0.00024389,0.00007736,-0.00379904,0.00205266,0.00109462,0.0075
 6346,0.02457127,0.00697683,-0.06269145,-0.02745879,-0.00697837,0.00407
 696,-0.02741897,-0.00793567,0.00089218,-0.00085181,-0.00049836,0.00042
 807,0.00093853,0.00029911,0.00001062,-0.00000058,-0.00000047,0.0000076
 1,0.00000118,-0.00000147,-0.00004539,-0.00000660,0.00000009,0.00010169
 ,-0.00000902,-0.00006384,0.00021700,0.00110957,0.00030293,0.00117752,-
 0.00064175,-0.00042331,0.05734878,0.00011426,0.00000826,-0.00005292,-0
 .00041390,0.00010324,-0.00002450,0.00075840,-0.00032429,-0.00027665,-0
 .00042025,-0.00022643,0.00006709,-0.00206406,0.00166314,-0.00175939,0.
 00022593,0.00044228,0.00031789,0.00254565,0.00076445,-0.00200719,-0.00
 481128,-0.00941382,-0.00389905,-0.02619388,-0.32261574,-0.08012599,0.0
 0021594,-0.00699446,-0.00308219,0.00157161,-0.00123637,0.00091690,-0.0
 0060345,0.00092234,0.00013788,-0.00004129,0.00000028,0.00000227,-0.000
 02307,-0.00001049,0.00000551,0.00000032,0.00001867,0.00000510,0.000004
 12,-0.00017958,0.00030451,-0.00021073,-0.00053895,-0.00009656,-0.00009
 697,0.00041433,0.00134385,0.02944266,0.33720312,0.00003836,-0.00005111
 ,0.00015924,-0.00011115,-0.00005799,0.00023885,0.00019284,-0.00017948,
 0.00045740,-0.00009789,0.00006115,-0.00037229,-0.00000303,-0.00181687,
 0.00755719,0.00006821,0.00031867,-0.00060507,0.00123813,-0.00198168,0.
 00668457,-0.00150044,-0.00524084,0.00339634,-0.00662567,-0.08006446,-0
 .06372860,0.00004656,-0.00181939,0.00311497,0.00019335,0.00099755,-0.0
 0438038,-0.00013797,0.00008497,0.00057978,0.00002108,-0.00001223,-0.00
 001945,-0.00004051,0.00001768,-0.00000605,0.00000180,0.00000523,0.0000
 0243,-0.00006056,0.00030540,-0.00114372,-0.00007844,-0.00015354,-0.000
 21224,-0.00027308,0.00136351,-0.00380735,0.00712841,0.08822344,0.05208
 437\\0.00000119,0.00000876,0.00000150,-0.00000020,-0.00000103,-0.00000
 117,0.00000104,-0.00000031,-0.00000057,0.00000009,-0.00000037,-0.00000
 085,-0.00000147,-0.00000061,-0.00000024,-0.00000093,-0.00000074,-0.000
 00047,-0.00000050,-0.00000137,-0.00000026,0.00000028,-0.00000173,0.000
 00007,0.00000065,-0.00000120,0.00000032,-0.00000023,-0.00000024,0.0000
 0026,0.00000079,-0.00000105,0.00000029,0.00000018,0.00000013,0.0000002
 1,0.00000191,0.00000256,0.00000010,0.00000125,0.00000138,-0.00000007,-
 0.00000363,0.00000173,0.00000123,-0.00000145,-0.00000063,-0.00000079,-
 0.00000084,-0.00000192,-0.00000046,0.00000054,-0.00000223,0.00000024,0
 .00000131,-0.00000113,0.00000068\\\@


 CHARLIE BROWN -- WHICH DO YOU THINK LASTS LONGER IN LIFE, THE GOOD THINGS 
                  OR THE BAD THINGS?
 LINUS --         GOOD THINGS LAST EIGHT SECONDS ..
                  BAD THINGS LAST THREE WEEKS
 CHARLIE BROWN -- WHAT ABOUT IN BETWEEN?
 SNOOPY --        IN BETWEEN YOU SHOULD TAKE A NAP ...
 Job cpu time:       0 days  0 hours 22 minutes 16.4 seconds.
 Elapsed time:       0 days  0 hours  0 minutes 48.7 seconds.
 File lengths (MBytes):  RWF=    408 Int=      0 D2E=      0 Chk=     20 Scr=      8
 Normal termination of Gaussian 16 at Wed Feb 28 19:51:47 2024.
