/tmp/slurmd/job36177571/slurm_script: line 73: warning: here-document at line 32 delimited by end-of-file (wanted `EOF')
 Entering Gaussian System, Link 0=g16
 Initial command:
 /software/gaussian-16RevA.03-el7-x86_64/g16/l1.exe "/project/depablo/riccardo/REDX/DMREF-Battery/monomers/QC/TEMPO/Gau-37736.inp" -scrdir="/project/depablo/riccardo/REDX/DMREF-Battery/monomers/QC/TEMPO/"
 Entering Link 1 = /software/gaussian-16RevA.03-el7-x86_64/g16/l1.exe PID=     37737.
  
 Copyright (c) 1988,1990,1992,1993,1995,1998,2003,2009,2016,
            Gaussian, Inc.  All Rights Reserved.
  
 This is part of the Gaussian(R) 16 program.  It is based on
 the Gaussian(R) 09 system (copyright 2009, Gaussian, Inc.),
 the Gaussian(R) 03 system (copyright 2003, Gaussian, Inc.),
 the Gaussian(R) 98 system (copyright 1998, Gaussian, Inc.),
 the Gaussian(R) 94 system (copyright 1995, Gaussian, Inc.),
 the Gaussian 92(TM) system (copyright 1992, Gaussian, Inc.),
 the Gaussian 90(TM) system (copyright 1990, Gaussian, Inc.),
 the Gaussian 88(TM) system (copyright 1988, Gaussian, Inc.),
 the Gaussian 86(TM) system (copyright 1986, Carnegie Mellon
 University), and the Gaussian 82(TM) system (copyright 1983,
 Carnegie Mellon University). Gaussian is a federally registered
 trademark of Gaussian, Inc.
  
 This software contains proprietary and confidential information,
 including trade secrets, belonging to Gaussian, Inc.
  
 This software is provided under written license and may be
 used, copied, transmitted, or stored only in accord with that
 written license.
  
 The following legend is applicable only to US Government
 contracts under FAR:
  
                    RESTRICTED RIGHTS LEGEND
  
 Use, reproduction and disclosure by the US Government is
 subject to restrictions as set forth in subparagraphs (a)
 and (c) of the Commercial Computer Software - Restricted
 Rights clause in FAR 52.227-19.
  
 Gaussian, Inc.
 340 Quinnipiac St., Bldg. 40, Wallingford CT 06492
  
  
 ---------------------------------------------------------------
 Warning -- This program may not be used in any manner that
 competes with the business of Gaussian, Inc. or will provide
 assistance to any competitor of Gaussian, Inc.  The licensee
 of this program is prohibited from giving any competitor of
 Gaussian, Inc. access to this program.  By using this program,
 the user acknowledges that Gaussian, Inc. is engaged in the
 business of creating and licensing software in the field of
 computational chemistry and represents and warrants to the
 licensee that it is not a competitor of Gaussian, Inc. and that
 it will not use this program in any manner prohibited above.
 ---------------------------------------------------------------
  

 Cite this work as:
 Gaussian 16, Revision A.03,
 M. J. Frisch, G. W. Trucks, H. B. Schlegel, G. E. Scuseria, 
 M. A. Robb, J. R. Cheeseman, G. Scalmani, V. Barone, 
 G. A. Petersson, H. Nakatsuji, X. Li, M. Caricato, A. V. Marenich, 
 J. Bloino, B. G. Janesko, R. Gomperts, B. Mennucci, H. P. Hratchian, 
 J. V. Ortiz, A. F. Izmaylov, J. L. Sonnenberg, D. Williams-Young, 
 F. Ding, F. Lipparini, F. Egidi, J. Goings, B. Peng, A. Petrone, 
 T. Henderson, D. Ranasinghe, V. G. Zakrzewski, J. Gao, N. Rega, 
 G. Zheng, W. Liang, M. Hada, M. Ehara, K. Toyota, R. Fukuda, 
 J. Hasegawa, M. Ishida, T. Nakajima, Y. Honda, O. Kitao, H. Nakai, 
 T. Vreven, K. Throssell, J. A. Montgomery, Jr., J. E. Peralta, 
 F. Ogliaro, M. J. Bearpark, J. J. Heyd, E. N. Brothers, K. N. Kudin, 
 V. N. Staroverov, T. A. Keith, R. Kobayashi, J. Normand, 
 K. Raghavachari, A. P. Rendell, J. C. Burant, S. S. Iyengar, 
 J. Tomasi, M. Cossi, J. M. Millam, M. Klene, C. Adamo, R. Cammi, 
 J. W. Ochterski, R. L. Martin, K. Morokuma, O. Farkas, 
 J. B. Foresman, and D. J. Fox, Gaussian, Inc., Wallingford CT, 2016.
 
 ******************************************
 Gaussian 16:  ES64L-G16RevA.03 25-Dec-2016
                28-Feb-2024 
 ******************************************
 %nprocshared=28
 Will use up to   28 processors via shared memory.
 %mem=16GB
 %Chk=TEMPO-cavity-in-DMF-wB97XD.chk
 ----------------------------------------------------------------------
 #P wB97XD/Def2SVPP opt=(MaxCycles=500, RecalcFC=50) freq scrf=(pcm,sol
 vent=n,n-DiMethylFormamide) nosymm int(grid=ultrafine) scf=(xqc,tight)
 ----------------------------------------------------------------------
 1/6=500,10=4,18=20,19=15,26=6,38=1,71=50/1,3;
 2/9=110,12=2,15=1,17=6,18=5,40=1/2;
 3/5=43,7=202,11=2,25=1,30=1,70=2201,71=2,72=148,74=-58,75=-5,140=1/1,2,3;
 4//1;
 5/5=2,8=3,13=1,32=2,38=5,53=148/2,8;
 8/6=4,10=90,11=11/1;
 11/6=1,8=1,9=11,15=111,16=1,31=1/1,2,10;
 10/6=1,31=1/2;
 6/7=2,8=2,9=2,10=2,28=1/1;
 7/10=1,25=1,30=1/1,2,3,16;
 1/6=500,10=4,18=20,19=15,26=6,71=50/3(3);
 2/9=110,15=1/2;
 7/9=1,25=1,30=1,44=-1/16;
 99//99;
 2/9=110,15=1/2;
 3/5=43,7=202,11=2,25=1,30=1,70=2205,71=2,72=148,74=-58,75=-5,140=1/1,2,3;
 4/5=5,16=3,69=1/1;
 5/5=2,8=3,13=1,32=2,38=5,53=148/2,8;
 8/6=4,10=90,11=11/1;
 11/6=1,8=1,9=11,15=111,16=1,31=1/1,2,10;
 10/6=1,31=1/2;
 7/10=1,25=1,30=1/1,2,3,16;
 1/6=500,18=20,19=15,26=6,71=50/3(-8);
 2/9=110,15=1/2;
 6/7=2,8=2,9=2,10=2,19=2,28=1/1;
 7/9=1,25=1,30=1,44=-1/16;
 99/9=1/99;
 Leave Link    1 at Wed Feb 28 20:58:27 2024, MaxMem=  2147483648 cpu:               6.3 elap:               0.2
 (Enter /software/gaussian-16RevA.03-el7-x86_64/g16/l101.exe)
 ----------------
 Cavity TEMPO DMF
 ----------------
 Symbolic Z-matrix:
 Charge =  0 Multiplicity = 2
 C                     0.00008   2.11697  -0.00154 
 C                    -1.23946   1.38506  -0.49767 
 C                    -1.3188   -0.07273  -0.02638 
 N                    -0.00004  -0.7462   -0.2164 
 C                     1.31878  -0.07283  -0.02642 
 C                     1.23956   1.38495  -0.4977 
 C                     1.7235   -0.16338   1.45173 
 C                     2.34246  -0.82618  -0.87577 
 O                    -0.00018  -2.00963  -0.08256 
 C                    -1.72353  -0.16331   1.45173 
 C                    -2.34241  -0.82608  -0.87583 
 H                     0.00012   3.14532  -0.37561 
 H                     0.00012   2.18712   1.09218 
 H                    -2.15481   1.89272  -0.1753 
 H                    -1.23924   1.39985  -1.59495 
 H                     1.23928   1.39973  -1.59499 
 H                     2.15496   1.89253  -0.17537 
 H                     1.64063  -1.19811   1.79257 
 H                     2.76216   0.1594    1.57032 
 H                     1.10104   0.46414   2.0938 
 H                     2.02956  -0.85247  -1.9231 
 H                     3.30867  -0.31649  -0.8132 
 H                     2.45873  -1.85257  -0.52702 
 H                    -2.76231   0.1591    1.57021 
 H                    -1.64031  -1.19798   1.79267 
 H                    -1.10135   0.4645    2.09377 
 H                    -2.02922  -0.85252  -1.92308 
 H                    -2.45888  -1.85243  -0.52702 
 H                    -3.30858  -0.31628  -0.81357 
 
 ITRead=  0  0  0  0  0  0  0  0  0  0  0  0  0  0  0  0  0  0  0  0
 ITRead=  0  0  0  0  0  0  0  0  0
 MicOpt= -1 -1 -1 -1 -1 -1 -1 -1 -1 -1 -1 -1 -1 -1 -1 -1 -1 -1 -1 -1
 MicOpt= -1 -1 -1 -1 -1 -1 -1 -1 -1
 NAtoms=     29 NQM=       29 NQMF=       0 NMMI=      0 NMMIF=      0
                NMic=       0 NMicF=      0.
                    Isotopes and Nuclear Properties:
 (Nuclear quadrupole moments (NQMom) in fm**2, nuclear magnetic moments (NMagM)
  in nuclear magnetons)

  Atom         1           2           3           4           5           6           7           8           9          10
 IAtWgt=          12          12          12          14          12          12          12          12          16          12
 AtmWgt=  12.0000000  12.0000000  12.0000000  14.0030740  12.0000000  12.0000000  12.0000000  12.0000000  15.9949146  12.0000000
 NucSpn=           0           0           0           2           0           0           0           0           0           0
 AtZEff=  -0.0000000  -0.0000000  -0.0000000  -0.0000000  -0.0000000  -0.0000000  -0.0000000  -0.0000000  -0.0000000  -0.0000000
 NQMom=    0.0000000   0.0000000   0.0000000   2.0440000   0.0000000   0.0000000   0.0000000   0.0000000   0.0000000   0.0000000
 NMagM=    0.0000000   0.0000000   0.0000000   0.4037610   0.0000000   0.0000000   0.0000000   0.0000000   0.0000000   0.0000000
 AtZNuc=   6.0000000   6.0000000   6.0000000   7.0000000   6.0000000   6.0000000   6.0000000   6.0000000   8.0000000   6.0000000

  Atom        11          12          13          14          15          16          17          18          19          20
 IAtWgt=          12           1           1           1           1           1           1           1           1           1
 AtmWgt=  12.0000000   1.0078250   1.0078250   1.0078250   1.0078250   1.0078250   1.0078250   1.0078250   1.0078250   1.0078250
 NucSpn=           0           1           1           1           1           1           1           1           1           1
 AtZEff=  -0.0000000  -0.0000000  -0.0000000  -0.0000000  -0.0000000  -0.0000000  -0.0000000  -0.0000000  -0.0000000  -0.0000000
 NQMom=    0.0000000   0.0000000   0.0000000   0.0000000   0.0000000   0.0000000   0.0000000   0.0000000   0.0000000   0.0000000
 NMagM=    0.0000000   2.7928460   2.7928460   2.7928460   2.7928460   2.7928460   2.7928460   2.7928460   2.7928460   2.7928460
 AtZNuc=   6.0000000   1.0000000   1.0000000   1.0000000   1.0000000   1.0000000   1.0000000   1.0000000   1.0000000   1.0000000

  Atom        21          22          23          24          25          26          27          28          29
 IAtWgt=           1           1           1           1           1           1           1           1           1
 AtmWgt=   1.0078250   1.0078250   1.0078250   1.0078250   1.0078250   1.0078250   1.0078250   1.0078250   1.0078250
 NucSpn=           1           1           1           1           1           1           1           1           1
 AtZEff=  -0.0000000  -0.0000000  -0.0000000  -0.0000000  -0.0000000  -0.0000000  -0.0000000  -0.0000000  -0.0000000
 NQMom=    0.0000000   0.0000000   0.0000000   0.0000000   0.0000000   0.0000000   0.0000000   0.0000000   0.0000000
 NMagM=    2.7928460   2.7928460   2.7928460   2.7928460   2.7928460   2.7928460   2.7928460   2.7928460   2.7928460
 AtZNuc=   1.0000000   1.0000000   1.0000000   1.0000000   1.0000000   1.0000000   1.0000000   1.0000000   1.0000000
 Leave Link  101 at Wed Feb 28 20:58:28 2024, MaxMem=  2147483648 cpu:              10.3 elap:               0.4
 (Enter /software/gaussian-16RevA.03-el7-x86_64/g16/l103.exe)

 GradGradGradGradGradGradGradGradGradGradGradGradGradGradGradGradGradGrad
 Berny optimization.
 Initialization pass.
                           ----------------------------
                           !    Initial Parameters    !
                           ! (Angstroms and Degrees)  !
 --------------------------                            --------------------------
 ! Name  Definition              Value          Derivative Info.                !
 --------------------------------------------------------------------------------
 ! R1    R(1,2)                  1.5226         calculate D2E/DX2 analytically  !
 ! R2    R(1,6)                  1.5226         calculate D2E/DX2 analytically  !
 ! R3    R(1,12)                 1.0943         calculate D2E/DX2 analytically  !
 ! R4    R(1,13)                 1.096          calculate D2E/DX2 analytically  !
 ! R5    R(2,3)                  1.5341         calculate D2E/DX2 analytically  !
 ! R6    R(2,14)                 1.0952         calculate D2E/DX2 analytically  !
 ! R7    R(2,15)                 1.0974         calculate D2E/DX2 analytically  !
 ! R8    R(3,4)                  1.4929         calculate D2E/DX2 analytically  !
 ! R9    R(3,10)                 1.5352         calculate D2E/DX2 analytically  !
 ! R10   R(3,11)                 1.5287         calculate D2E/DX2 analytically  !
 ! R11   R(4,5)                  1.4929         calculate D2E/DX2 analytically  !
 ! R12   R(4,9)                  1.2705         calculate D2E/DX2 analytically  !
 ! R13   R(5,6)                  1.5341         calculate D2E/DX2 analytically  !
 ! R14   R(5,7)                  1.5352         calculate D2E/DX2 analytically  !
 ! R15   R(5,8)                  1.5287         calculate D2E/DX2 analytically  !
 ! R16   R(6,16)                 1.0974         calculate D2E/DX2 analytically  !
 ! R17   R(6,17)                 1.0952         calculate D2E/DX2 analytically  !
 ! R18   R(7,18)                 1.0926         calculate D2E/DX2 analytically  !
 ! R19   R(7,19)                 1.0941         calculate D2E/DX2 analytically  !
 ! R20   R(7,20)                 1.0925         calculate D2E/DX2 analytically  !
 ! R21   R(8,21)                 1.0934         calculate D2E/DX2 analytically  !
 ! R22   R(8,22)                 1.0942         calculate D2E/DX2 analytically  !
 ! R23   R(8,23)                 1.0902         calculate D2E/DX2 analytically  !
 ! R24   R(10,24)                1.0941         calculate D2E/DX2 analytically  !
 ! R25   R(10,25)                1.0926         calculate D2E/DX2 analytically  !
 ! R26   R(10,26)                1.0925         calculate D2E/DX2 analytically  !
 ! R27   R(11,27)                1.0934         calculate D2E/DX2 analytically  !
 ! R28   R(11,28)                1.0902         calculate D2E/DX2 analytically  !
 ! R29   R(11,29)                1.0942         calculate D2E/DX2 analytically  !
 ! A1    A(2,1,6)              108.9916         calculate D2E/DX2 analytically  !
 ! A2    A(2,1,12)             109.9002         calculate D2E/DX2 analytically  !
 ! A3    A(2,1,13)             110.8529         calculate D2E/DX2 analytically  !
 ! A4    A(6,1,12)             109.9002         calculate D2E/DX2 analytically  !
 ! A5    A(6,1,13)             110.851          calculate D2E/DX2 analytically  !
 ! A6    A(12,1,13)            106.3195         calculate D2E/DX2 analytically  !
 ! A7    A(1,2,3)              113.5018         calculate D2E/DX2 analytically  !
 ! A8    A(1,2,14)             111.2029         calculate D2E/DX2 analytically  !
 ! A9    A(1,2,15)             108.6123         calculate D2E/DX2 analytically  !
 ! A10   A(3,2,14)             107.8676         calculate D2E/DX2 analytically  !
 ! A11   A(3,2,15)             108.6625         calculate D2E/DX2 analytically  !
 ! A12   A(14,2,15)            106.7527         calculate D2E/DX2 analytically  !
 ! A13   A(2,3,4)              110.1136         calculate D2E/DX2 analytically  !
 ! A14   A(2,3,10)             111.4373         calculate D2E/DX2 analytically  !
 ! A15   A(2,3,11)             109.4026         calculate D2E/DX2 analytically  !
 ! A16   A(4,3,10)             109.1967         calculate D2E/DX2 analytically  !
 ! A17   A(4,3,11)             107.3647         calculate D2E/DX2 analytically  !
 ! A18   A(10,3,11)            109.2325         calculate D2E/DX2 analytically  !
 ! A19   A(3,4,5)              124.1021         calculate D2E/DX2 analytically  !
 ! A20   A(3,4,9)              115.7913         calculate D2E/DX2 analytically  !
 ! A21   A(5,4,9)              115.7995         calculate D2E/DX2 analytically  !
 ! A22   A(4,5,6)              110.1136         calculate D2E/DX2 analytically  !
 ! A23   A(4,5,7)              109.1961         calculate D2E/DX2 analytically  !
 ! A24   A(4,5,8)              107.3722         calculate D2E/DX2 analytically  !
 ! A25   A(6,5,7)              111.4346         calculate D2E/DX2 analytically  !
 ! A26   A(6,5,8)              109.4015         calculate D2E/DX2 analytically  !
 ! A27   A(7,5,8)              109.2299         calculate D2E/DX2 analytically  !
 ! A28   A(1,6,5)              113.502          calculate D2E/DX2 analytically  !
 ! A29   A(1,6,16)             108.6117         calculate D2E/DX2 analytically  !
 ! A30   A(1,6,17)             111.2034         calculate D2E/DX2 analytically  !
 ! A31   A(5,6,16)             108.6621         calculate D2E/DX2 analytically  !
 ! A32   A(5,6,17)             107.8672         calculate D2E/DX2 analytically  !
 ! A33   A(16,6,17)            106.7533         calculate D2E/DX2 analytically  !
 ! A34   A(5,7,18)             109.6467         calculate D2E/DX2 analytically  !
 ! A35   A(5,7,19)             109.7075         calculate D2E/DX2 analytically  !
 ! A36   A(5,7,20)             112.4449         calculate D2E/DX2 analytically  !
 ! A37   A(18,7,19)            108.5169         calculate D2E/DX2 analytically  !
 ! A38   A(18,7,20)            108.5078         calculate D2E/DX2 analytically  !
 ! A39   A(19,7,20)            107.9235         calculate D2E/DX2 analytically  !
 ! A40   A(5,8,21)             110.6355         calculate D2E/DX2 analytically  !
 ! A41   A(5,8,22)             109.2688         calculate D2E/DX2 analytically  !
 ! A42   A(5,8,23)             110.955          calculate D2E/DX2 analytically  !
 ! A43   A(21,8,22)            108.5825         calculate D2E/DX2 analytically  !
 ! A44   A(21,8,23)            108.3183         calculate D2E/DX2 analytically  !
 ! A45   A(22,8,23)            109.0301         calculate D2E/DX2 analytically  !
 ! A46   A(3,10,24)            109.7052         calculate D2E/DX2 analytically  !
 ! A47   A(3,10,25)            109.6485         calculate D2E/DX2 analytically  !
 ! A48   A(3,10,26)            112.4449         calculate D2E/DX2 analytically  !
 ! A49   A(24,10,25)           108.5174         calculate D2E/DX2 analytically  !
 ! A50   A(24,10,26)           107.9227         calculate D2E/DX2 analytically  !
 ! A51   A(25,10,26)           108.5087         calculate D2E/DX2 analytically  !
 ! A52   A(3,11,27)            110.6302         calculate D2E/DX2 analytically  !
 ! A53   A(3,11,28)            110.9578         calculate D2E/DX2 analytically  !
 ! A54   A(3,11,29)            109.271          calculate D2E/DX2 analytically  !
 ! A55   A(27,11,28)           108.3168         calculate D2E/DX2 analytically  !
 ! A56   A(27,11,29)           108.5837         calculate D2E/DX2 analytically  !
 ! A57   A(28,11,29)           109.0306         calculate D2E/DX2 analytically  !
 ! D1    D(6,1,2,3)             59.1684         calculate D2E/DX2 analytically  !
 ! D2    D(6,1,2,14)          -178.9911         calculate D2E/DX2 analytically  !
 ! D3    D(6,1,2,15)           -61.8052         calculate D2E/DX2 analytically  !
 ! D4    D(12,1,2,3)           179.6608         calculate D2E/DX2 analytically  !
 ! D5    D(12,1,2,14)          -58.4987         calculate D2E/DX2 analytically  !
 ! D6    D(12,1,2,15)           58.6873         calculate D2E/DX2 analytically  !
 ! D7    D(13,1,2,3)           -63.1019         calculate D2E/DX2 analytically  !
 ! D8    D(13,1,2,14)           58.7386         calculate D2E/DX2 analytically  !
 ! D9    D(13,1,2,15)          175.9246         calculate D2E/DX2 analytically  !
 ! D10   D(2,1,6,5)            -59.1686         calculate D2E/DX2 analytically  !
 ! D11   D(2,1,6,16)            61.8041         calculate D2E/DX2 analytically  !
 ! D12   D(2,1,6,17)           178.9907         calculate D2E/DX2 analytically  !
 ! D13   D(12,1,6,5)          -179.6611         calculate D2E/DX2 analytically  !
 ! D14   D(12,1,6,16)          -58.6883         calculate D2E/DX2 analytically  !
 ! D15   D(12,1,6,17)           58.4983         calculate D2E/DX2 analytically  !
 ! D16   D(13,1,6,5)            63.1028         calculate D2E/DX2 analytically  !
 ! D17   D(13,1,6,16)         -175.9245         calculate D2E/DX2 analytically  !
 ! D18   D(13,1,6,17)          -58.7379         calculate D2E/DX2 analytically  !
 ! D19   D(1,2,3,4)            -46.0226         calculate D2E/DX2 analytically  !
 ! D20   D(1,2,3,10)            75.3089         calculate D2E/DX2 analytically  !
 ! D21   D(1,2,3,11)          -163.7949         calculate D2E/DX2 analytically  !
 ! D22   D(14,2,3,4)          -169.7025         calculate D2E/DX2 analytically  !
 ! D23   D(14,2,3,10)          -48.3711         calculate D2E/DX2 analytically  !
 ! D24   D(14,2,3,11)           72.5251         calculate D2E/DX2 analytically  !
 ! D25   D(15,2,3,4)            74.9227         calculate D2E/DX2 analytically  !
 ! D26   D(15,2,3,10)         -163.7459         calculate D2E/DX2 analytically  !
 ! D27   D(15,2,3,11)          -42.8496         calculate D2E/DX2 analytically  !
 ! D28   D(2,3,4,5)             36.1323         calculate D2E/DX2 analytically  !
 ! D29   D(2,3,4,9)           -168.23           calculate D2E/DX2 analytically  !
 ! D30   D(10,3,4,5)           -86.527          calculate D2E/DX2 analytically  !
 ! D31   D(10,3,4,9)            69.1107         calculate D2E/DX2 analytically  !
 ! D32   D(11,3,4,5)           155.1574         calculate D2E/DX2 analytically  !
 ! D33   D(11,3,4,9)           -49.2049         calculate D2E/DX2 analytically  !
 ! D34   D(2,3,10,24)           68.5195         calculate D2E/DX2 analytically  !
 ! D35   D(2,3,10,25)         -172.3973         calculate D2E/DX2 analytically  !
 ! D36   D(2,3,10,26)          -51.5874         calculate D2E/DX2 analytically  !
 ! D37   D(4,3,10,24)         -169.6167         calculate D2E/DX2 analytically  !
 ! D38   D(4,3,10,25)          -50.5335         calculate D2E/DX2 analytically  !
 ! D39   D(4,3,10,26)           70.2763         calculate D2E/DX2 analytically  !
 ! D40   D(11,3,10,24)         -52.4763         calculate D2E/DX2 analytically  !
 ! D41   D(11,3,10,25)          66.607          calculate D2E/DX2 analytically  !
 ! D42   D(11,3,10,26)        -172.5832         calculate D2E/DX2 analytically  !
 ! D43   D(2,3,11,27)           62.8269         calculate D2E/DX2 analytically  !
 ! D44   D(2,3,11,28)         -176.9218         calculate D2E/DX2 analytically  !
 ! D45   D(2,3,11,29)          -56.6693         calculate D2E/DX2 analytically  !
 ! D46   D(4,3,11,27)          -56.6541         calculate D2E/DX2 analytically  !
 ! D47   D(4,3,11,28)           63.5971         calculate D2E/DX2 analytically  !
 ! D48   D(4,3,11,29)         -176.1503         calculate D2E/DX2 analytically  !
 ! D49   D(10,3,11,27)        -174.9465         calculate D2E/DX2 analytically  !
 ! D50   D(10,3,11,28)         -54.6953         calculate D2E/DX2 analytically  !
 ! D51   D(10,3,11,29)          65.5573         calculate D2E/DX2 analytically  !
 ! D52   D(3,4,5,6)            -36.1324         calculate D2E/DX2 analytically  !
 ! D53   D(3,4,5,7)             86.5231         calculate D2E/DX2 analytically  !
 ! D54   D(3,4,5,8)           -155.1605         calculate D2E/DX2 analytically  !
 ! D55   D(9,4,5,6)            168.2317         calculate D2E/DX2 analytically  !
 ! D56   D(9,4,5,7)            -69.1128         calculate D2E/DX2 analytically  !
 ! D57   D(9,4,5,8)             49.2036         calculate D2E/DX2 analytically  !
 ! D58   D(4,5,6,1)             46.0226         calculate D2E/DX2 analytically  !
 ! D59   D(4,5,6,16)           -74.9218         calculate D2E/DX2 analytically  !
 ! D60   D(4,5,6,17)           169.7032         calculate D2E/DX2 analytically  !
 ! D61   D(7,5,6,1)            -75.3062         calculate D2E/DX2 analytically  !
 ! D62   D(7,5,6,16)           163.7494         calculate D2E/DX2 analytically  !
 ! D63   D(7,5,6,17)            48.3744         calculate D2E/DX2 analytically  !
 ! D64   D(8,5,6,1)            163.8034         calculate D2E/DX2 analytically  !
 ! D65   D(8,5,6,16)            42.8589         calculate D2E/DX2 analytically  !
 ! D66   D(8,5,6,17)           -72.5161         calculate D2E/DX2 analytically  !
 ! D67   D(4,5,7,18)            50.5605         calculate D2E/DX2 analytically  !
 ! D68   D(4,5,7,19)           169.6435         calculate D2E/DX2 analytically  !
 ! D69   D(4,5,7,20)           -70.247          calculate D2E/DX2 analytically  !
 ! D70   D(6,5,7,18)           172.422          calculate D2E/DX2 analytically  !
 ! D71   D(6,5,7,19)           -68.495          calculate D2E/DX2 analytically  !
 ! D72   D(6,5,7,20)            51.6146         calculate D2E/DX2 analytically  !
 ! D73   D(8,5,7,18)           -66.5872         calculate D2E/DX2 analytically  !
 ! D74   D(8,5,7,19)            52.4958         calculate D2E/DX2 analytically  !
 ! D75   D(8,5,7,20)           172.6054         calculate D2E/DX2 analytically  !
 ! D76   D(4,5,8,21)            56.6691         calculate D2E/DX2 analytically  !
 ! D77   D(4,5,8,22)           176.1657         calculate D2E/DX2 analytically  !
 ! D78   D(4,5,8,23)           -63.5856         calculate D2E/DX2 analytically  !
 ! D79   D(6,5,8,21)           -62.8156         calculate D2E/DX2 analytically  !
 ! D80   D(6,5,8,22)            56.681          calculate D2E/DX2 analytically  !
 ! D81   D(6,5,8,23)           176.9297         calculate D2E/DX2 analytically  !
 ! D82   D(7,5,8,21)           174.9636         calculate D2E/DX2 analytically  !
 ! D83   D(7,5,8,22)           -65.5398         calculate D2E/DX2 analytically  !
 ! D84   D(7,5,8,23)            54.7089         calculate D2E/DX2 analytically  !
 --------------------------------------------------------------------------------
 Trust Radius=3.00D-01 FncErr=5.00D-06 GrdErr=5.00D-06 EigMax=2.50D+02 EigMin=1.00D-04
 Number of steps in this run=    174 maximum allowed number of steps=    174.
 Step   0 in ReCalcFC=50 IGetFC= 4 compute analytic Hessian.
 GradGradGradGradGradGradGradGradGradGradGradGradGradGradGradGradGradGrad

 Leave Link  103 at Wed Feb 28 20:58:28 2024, MaxMem=  2147483648 cpu:               0.8 elap:               0.1
 (Enter /software/gaussian-16RevA.03-el7-x86_64/g16/l202.exe)
                          Input orientation:                          
 ---------------------------------------------------------------------
 Center     Atomic      Atomic             Coordinates (Angstroms)
 Number     Number       Type             X           Y           Z
 ---------------------------------------------------------------------
      1          6           0        0.000081    2.116974   -0.001542
      2          6           0       -1.239464    1.385061   -0.497667
      3          6           0       -1.318795   -0.072730   -0.026376
      4          7           0       -0.000038   -0.746198   -0.216396
      5          6           0        1.318783   -0.072834   -0.026415
      6          6           0        1.239556    1.384950   -0.497702
      7          6           0        1.723500   -0.163376    1.451732
      8          6           0        2.342459   -0.826179   -0.875766
      9          8           0       -0.000180   -2.009627   -0.082563
     10          6           0       -1.723525   -0.163314    1.451725
     11          6           0       -2.342409   -0.826078   -0.875827
     12          1           0        0.000120    3.145316   -0.375612
     13          1           0        0.000119    2.187125    1.092183
     14          1           0       -2.154811    1.892722   -0.175299
     15          1           0       -1.239235    1.399851   -1.594950
     16          1           0        1.239280    1.399730   -1.594989
     17          1           0        2.154959    1.892528   -0.175369
     18          1           0        1.640633   -1.198109    1.792568
     19          1           0        2.762162    0.159396    1.570316
     20          1           0        1.101041    0.464138    2.093803
     21          1           0        2.029560   -0.852466   -1.923103
     22          1           0        3.308670   -0.316494   -0.813200
     23          1           0        2.458731   -1.852570   -0.527016
     24          1           0       -2.762308    0.159101    1.570205
     25          1           0       -1.640306   -1.197983    1.792666
     26          1           0       -1.101345    0.464501    2.093770
     27          1           0       -2.029217   -0.852515   -1.923079
     28          1           0       -2.458879   -1.852428   -0.527020
     29          1           0       -3.308584   -0.316279   -0.813566
 ---------------------------------------------------------------------
                    Distance matrix (angstroms):
                    1          2          3          4          5
     1  C    0.000000
     2  C    1.522599   0.000000
     3  C    2.556336   1.534133   0.000000
     4  N    2.871222   2.481442   1.492912   0.000000
     5  C    2.556336   2.981973   2.637578   1.492917   0.000000
     6  C    1.522607   2.479020   2.981969   2.481435   1.534119
     7  C    3.206583   3.870009   3.383575   2.468383   1.535224
     8  C    3.861755   4.226430   3.833266   2.434842   1.528672
     9  O    4.127396   3.637587   2.343816   1.270498   2.343925
    10  C    3.206636   2.536121   1.535185   2.468358   3.383596
    11  C    3.861760   2.499726   1.528688   2.434734   3.833172
    12  H    1.094265   2.156377   3.495329   3.894770   3.495325
    13  H    1.095972   2.169676   2.845638   3.211972   2.845620
    14  H    2.173486   1.095217   2.141052   3.407145   3.993924
    15  H    2.142223   1.097383   2.152963   2.835762   3.342538
    16  H    2.142225   2.710812   3.342519   2.835742   2.152949
    17  H    2.173497   3.447246   3.993921   3.407135   2.141034
    18  H    4.110963   4.495876   3.651472   2.632862   2.162991
    19  H    3.732551   4.668171   4.388339   3.412065   2.164907
    20  H    2.886945   3.611340   3.261747   2.830955   2.197971
    21  H    4.077837   4.210097   3.926454   2.653942   2.170358
    22  H    4.186564   4.866248   4.700207   3.389450   2.153613
    23  H    4.698762   4.915258   4.205731   2.714054   2.171991
    24  H    3.732887   2.845721   2.164843   3.411985   4.388427
    25  H    4.110838   3.475402   2.162979   2.632664   3.651195
    26  H    2.886891   2.753553   2.197936   2.831172   3.262044
    27  H    4.077771   2.768078   2.170310   2.653608   3.926110
    28  H    4.698804   3.459649   2.172041   2.714062   4.205745
    29  H    4.186570   2.697333   2.153658   3.389383   4.700149
                    6          7          8          9         10
     6  C    0.000000
     7  C    2.536101   0.000000
     8  C    2.499684   2.497932   0.000000
     9  O    3.637642   2.955296   2.741838   0.000000
    10  C    3.870043   3.447025   4.731684   2.955136   0.000000
    11  C    4.226357   4.731630   4.684868   2.741549   2.497954
    12  H    2.156385   4.154115   4.637831   5.163266   4.154172
    13  H    2.169660   2.936694   4.294110   4.358068   2.936798
    14  H    3.447246   4.681460   5.301746   4.458628   2.657160
    15  H    2.710826   4.528107   4.277963   3.930281   3.458359
    16  H    1.097387   3.458364   2.586302   3.930319   4.528111
    17  H    1.095215   2.657133   2.813731   4.458705   4.681513
    18  H    3.475398   1.092570   2.784043   2.620486   3.536175
    19  H    2.845525   1.094104   2.670361   3.881650   4.498844
    20  H    2.753721   1.092467   3.467618   3.474014   2.963804
    21  H    2.768015   3.458038   1.093395   2.974299   5.094118
    22  H    2.697347   2.768777   1.094192   3.788010   5.520538
    23  H    3.459593   2.703587   1.090240   2.503687   4.925471
    24  H    4.668390   4.498944   5.745624   3.881285   1.094102
    25  H    4.495657   3.535794   4.808449   2.620165   1.092569
    26  H    3.611478   2.964151   4.726921   3.474234   1.092466
    27  H    4.209849   5.093834   4.495454   2.973785   3.457998
    28  H    4.915272   4.925510   4.922160   2.503488   2.703569
    29  H    4.866161   5.520582   5.674342   3.787787   2.768999
                   11         12         13         14         15
    11  C    0.000000
    12  H    4.637847   0.000000
    13  H    4.294170   1.752870   0.000000
    14  H    2.813860   2.500569   2.517321   0.000000
    15  H    2.586289   2.463622   3.062104   1.759719   0.000000
    16  H    4.277840   2.463629   3.062091   3.711929   2.478515
    17  H    5.301677   2.500581   2.517302   4.309770   3.711939
    18  H    4.808676   5.124220   3.826439   5.275522   5.149594
    19  H    5.745557   4.509017   3.459650   5.498019   5.250601
    20  H    4.726596   3.807723   2.276830   4.217849   4.467589
    21  H    4.495731   4.742954   4.738111   5.300928   3.983169
    22  H    5.674354   4.808546   4.565644   5.927662   4.923455
    23  H    4.922022   5.571944   4.998571   5.952788   5.039214
    24  H    2.670200   4.509400   3.460114   2.534024   3.725241
    25  H    2.784262   5.124127   3.826307   3.700008   4.287836
    26  H    3.467613   3.807603   2.276803   2.880674   3.807959
    27  H    1.093401   4.742944   4.738082   3.256814   2.409335
    28  H    1.090241   5.571988   4.998648   3.773899   3.633913
    29  H    1.094196   4.808531   4.565789   2.572598   2.799619
                   16         17         18         19         20
    16  H    0.000000
    17  H    1.759727   0.000000
    18  H    4.287819   3.699911   0.000000
    19  H    3.725152   2.533744   1.774836   0.000000
    20  H    3.808100   2.881004   1.773406   1.768115   0.000000
    21  H    2.409271   3.256577   3.751925   3.710060   4.327947
    22  H    2.799820   2.572480   3.217082   2.491243   3.732784
    23  H    3.633880   3.773817   2.545206   2.922136   3.752219
    24  H    5.250745   5.498301   4.612738   5.524470   3.910584
    25  H    5.149401   5.275268   3.280939   4.612336   3.219987
    26  H    4.467675   4.218029   3.220782   3.910726   2.202386
    27  H    3.982879   5.300668   5.233858   6.015404   5.259984
    28  H    5.039193   5.952802   4.755483   5.975410   4.990814
    29  H    4.923248   5.927599   5.662535   6.539351   5.339161
                   21         22         23         24         25
    21  H    0.000000
    22  H    1.776309   0.000000
    23  H    1.770157   1.778715   0.000000
    24  H    6.015685   6.539387   5.975316   0.000000
    25  H    5.233950   5.662148   4.755156   1.774839   0.000000
    26  H    5.260441   5.339350   4.991140   1.768103   1.773414
    27  H    4.058777   5.478338   4.805287   3.709963   3.751981
    28  H    4.805732   5.975417   4.917610   2.921758   2.545448
    29  H    5.478535   6.617254   5.975301   2.491339   3.217608
                   26         27         28         29
    26  H    0.000000
    27  H    4.327881   0.000000
    28  H    3.752279   1.770146   0.000000
    29  H    3.732844   1.776330   1.778725   0.000000
 Symmetry turned off by external request.
 Stoichiometry    C9H18NO(2)
 Framework group  C1[X(C9H18NO)]
 Deg. of freedom    81
 Full point group                 C1      NOp   1
 Rotational constants (GHZ):           1.4907652           1.0713652           0.8609652
 Leave Link  202 at Wed Feb 28 20:58:28 2024, MaxMem=  2147483648 cpu:               0.8 elap:               0.1
 (Enter /software/gaussian-16RevA.03-el7-x86_64/g16/l301.exe)
 Standard basis: def2SVPP (5D, 7F)
 Ernie: Thresh=  0.10000D-02 Tol=  0.10000D-05 Strict=F.
   190 basis functions,   347 primitive gaussians,   201 cartesian basis functions
    44 alpha electrons       43 beta electrons
       nuclear repulsion energy       717.9437839131 Hartrees.
 IExCor= 4639 DFT=T Ex+Corr=wB97XD ExCW=0 ScaHFX=  1.000000
 ScaDFX=  1.000000  1.000000  1.000000  1.000000 ScalE2=  1.000000  1.000000
 IRadAn=      5 IRanWt=     -1 IRanGd=            0 ICorTp=0 IEmpDi=121
 HFx  wShort=  0.000000 wLong=  0.200000 cFull=  0.222036 cShort=  0.000000 cLong=  0.777964
 DFx  wShort=  0.000000 wLong=  0.200000 cFull=  0.000000 cShort=  0.000000 cLong=  1.000000
 NAtoms=   29 NActive=   29 NUniq=   29 SFac= 1.00D+00 NAtFMM=   60 NAOKFM=F Big=F
 Integral buffers will be    131072 words long.
 Raffenetti 2 integral format.
 Two-electron integral symmetry is turned off.
 R6Disp:  Grimme-D2 Dispersion energy=       -0.0257349246 Hartrees.
 Nuclear repulsion after empirical dispersion term =      717.9180489884 Hartrees.
 Force inversion solution in PCM.
 ------------------------------------------------------------------------------
 Polarizable Continuum Model (PCM)
 =================================
 Model                : PCM.
 Atomic radii         : UFF (Universal Force Field).
 Polarization charges : Total charges.
 Charge compensation  : None.
 Solution method      : Matrix inversion.
 Cavity type          : Scaled VdW (van der Waals Surface) (Alpha=1.100).
 Cavity algorithm     : GePol (No added spheres)
                        Default sphere list used, NSphG=   29.
                        Lebedev-Laikov grids with approx.  5.0 points / Ang**2.
                        Smoothing algorithm: York/Karplus (Gamma=1.0000).
                        Polarization charges: spherical gaussians, with
                                              point-specific exponents (IZeta= 3).
                        Self-potential: point-specific (ISelfS= 7).
                        Self-field    : sphere-specific E.n sum rule (ISelfD= 2).
 1st derivatives      : Analytical E(r).r(x)/FMM algorithm (CHGder, D1EAlg=3).
                        Cavity 1st derivative terms included.
 2nd derivatives      : Analytical E(r).r(xy)/FMM algorithm (CHGder, D2EAlg=3).
                        Cavity 2nd derivative terms included.
 Solvent              : n,n-DiMethylFormamide, Eps=  37.219000 Eps(inf)=   2.046330
 ------------------------------------------------------------------------------
 GePol: Number of generator spheres                  =      29
 GePol: Total number of spheres                      =      29
 GePol: Number of exposed spheres                    =      29 (100.00%)
 GePol: Number of points                             =    1746
 GePol: Average weight of points                     =       0.13
 GePol: Minimum weight of points                     =   0.10D-11
 GePol: Maximum weight of points                     =    0.20577
 GePol: Number of points with low weight             =     106
 GePol: Fraction of low-weight points (<1% of avg)   =       6.07%
 GePol: Cavity surface area                          =    235.143 Ang**2
 GePol: Cavity volume                                =    255.129 Ang**3
 Leave Link  301 at Wed Feb 28 20:58:28 2024, MaxMem=  2147483648 cpu:               2.2 elap:               0.1
 (Enter /software/gaussian-16RevA.03-el7-x86_64/g16/l302.exe)
 NPDir=0 NMtPBC=     1 NCelOv=     1 NCel=       1 NClECP=     1 NCelD=      1
         NCelK=      1 NCelE2=     1 NClLst=     1 CellRange=     0.0.
 One-electron integrals computed using PRISM.
   1 Symmetry operations used in ECPInt.
 ECPInt:  NShTT=    5253 NPrTT=   21107 LenC2=    5228 LenP2D=   16402.
 LDataN:  DoStor=T MaxTD1= 4 Len=   56
 NBasis=   190 RedAO= T EigKep=  1.00D-03  NBF=   190
 NBsUse=   190 1.00D-06 EigRej= -1.00D+00 NBFU=   190
 Precomputing XC quadrature grid using
 IXCGrd= 4 IRadAn=           5 IRanWt=          -1 IRanGd=           0 AccXCQ= 0.00D+00.
 Generated NRdTot=       0 NPtTot=           0 NUsed=           0 NTot=          32
 NSgBfM=   201   201   201   201   201 MxSgAt=    29 MxSgA2=    29.
 Leave Link  302 at Wed Feb 28 20:58:28 2024, MaxMem=  2147483648 cpu:               8.9 elap:               0.4
 (Enter /software/gaussian-16RevA.03-el7-x86_64/g16/l303.exe)
 DipDrv:  MaxL=1.
 Leave Link  303 at Wed Feb 28 20:58:28 2024, MaxMem=  2147483648 cpu:               1.4 elap:               0.1
 (Enter /software/gaussian-16RevA.03-el7-x86_64/g16/l401.exe)
 ExpMin= 1.22D-01 ExpMax= 2.27D+03 ExpMxC= 3.41D+02 IAcc=3 IRadAn=         5 AccDes= 0.00D+00
 Harris functional with IExCor= 4639 and IRadAn=       5 diagonalized for initial guess.
 HarFok:  IExCor= 4639 AccDes= 0.00D+00 IRadAn=         5 IDoV= 1 UseB2=F ITyADJ=14
 ICtDFT=  3500011 ScaDFX=  1.000000  1.000000  1.000000  1.000000
 FoFCou: FMM=F IPFlag=           0 FMFlag=      100000 FMFlg1=           0
         NFxFlg=           0 DoJE=T BraDBF=F KetDBF=T FulRan=T
         wScrn=  0.000000 ICntrl=       500 IOpCl=  0 I1Cent=   200000004 NGrid=           0
         NMat0=    1 NMatS0=      1 NMatT0=    0 NMatD0=    1 NMtDS0=    0 NMtDT0=    0
 Symmetry not used in FoFCou.
 Harris En= -461.002898799519    
 JPrj=0 DoOrth=F DoCkMO=F.
 Initial guess <Sx>= 0.0000 <Sy>= 0.0000 <Sz>= 0.5000 <S**2>= 0.7500 S= 0.5000
 Leave Link  401 at Wed Feb 28 20:58:29 2024, MaxMem=  2147483648 cpu:              17.3 elap:               0.7
 (Enter /software/gaussian-16RevA.03-el7-x86_64/g16/l502.exe)
 Two-electron integral symmetry not used.
 UHF open shell SCF:
 Using DIIS extrapolation, IDIIS=  1040.
 NGot=  2147483648 LenX=  2147395142 LenY=  2147354300
 Requested convergence on RMS density matrix=1.00D-08 within  32 cycles.
 Requested convergence on MAX density matrix=1.00D-06.
 Requested convergence on             energy=1.00D-06.
 No special actions if energy rises.
 Fock matrices will be formed incrementally for  20 cycles.

 Cycle   1  Pass 1  IDiag  1:
 FoFJK:  IHMeth= 1 ICntrl=       0 DoSepK=T KAlg= 0 I1Cent=           0 FoldK=F
 IRaf=         1 NMat=       1 IRICut=       1 DoRegI=T DoRafI=F ISym2E= 0 IDoP0=0 IntGTp=1.
 FoFCou: FMM=F IPFlag=           0 FMFlag=      100000 FMFlg1=           0
         NFxFlg=           0 DoJE=T BraDBF=F KetDBF=F FulRan=T
         wScrn=  0.000000 ICntrl=       500 IOpCl=  0 I1Cent=           0 NGrid=           0
         NMat0=    1 NMatS0=      1 NMatT0=    0 NMatD0=    1 NMtDS0=    0 NMtDT0=    0
 Symmetry not used in FoFCou.
 Inv3:  Mode=1 IEnd=     9145548.
 Iteration    1 A*A^-1 deviation from unit magnitude is 3.55D-15 for    368.
 Iteration    1 A*A^-1 deviation from orthogonality  is 2.60D-15 for   1339     14.
 Iteration    1 A^-1*A deviation from unit magnitude is 3.66D-15 for    752.
 Iteration    1 A^-1*A deviation from orthogonality  is 1.95D-15 for   1656    883.
 E= -483.023962047896    
 DIIS: error= 3.10D-02 at cycle   1 NSaved=   1.
 NSaved= 1 IEnMin= 1 EnMin= -483.023962047896     IErMin= 1 ErrMin= 3.10D-02
 ErrMax= 3.10D-02  0.00D+00 EMaxC= 1.00D-01 BMatC= 1.19D+00 BMatP= 1.19D+00
 IDIUse=3 WtCom= 6.90D-01 WtEn= 3.10D-01
 Coeff-Com:  0.100D+01
 Coeff-En:   0.100D+01
 Coeff:      0.100D+01
 Gap=     0.513 Goal=   None    Shift=    0.000
 Gap=     0.319 Goal=   None    Shift=    0.000
 GapD=    0.319 DampG=1.000 DampE=0.500 DampFc=0.5000 IDamp=-1.
 Damping current iteration by 5.00D-01
 RMSDP=6.16D-03 MaxDP=1.83D-01              OVMax= 1.64D-01

 Cycle   2  Pass 1  IDiag  1:
 RMSU=  2.97D-03    CP:  9.68D-01
 E= -483.113230619684     Delta-E=       -0.089268571788 Rises=F Damp=T
 DIIS: error= 1.41D-02 at cycle   2 NSaved=   2.
 NSaved= 2 IEnMin= 2 EnMin= -483.113230619684     IErMin= 2 ErrMin= 1.41D-02
 ErrMax= 1.41D-02  0.00D+00 EMaxC= 1.00D-01 BMatC= 1.64D-01 BMatP= 1.19D+00
 IDIUse=3 WtCom= 8.59D-01 WtEn= 1.41D-01
 Coeff-Com: -0.213D+00 0.121D+01
 Coeff-En:   0.000D+00 0.100D+01
 Coeff:     -0.183D+00 0.118D+01
 Gap=     0.505 Goal=   None    Shift=    0.000
 Gap=     0.441 Goal=   None    Shift=    0.000
 RMSDP=2.35D-03 MaxDP=6.01D-02 DE=-8.93D-02 OVMax= 7.79D-02

 Cycle   3  Pass 1  IDiag  1:
 RMSU=  1.59D-03    CP:  9.44D-01  1.55D+00
 E= -483.197955743779     Delta-E=       -0.084725124094 Rises=F Damp=F
 DIIS: error= 7.97D-03 at cycle   3 NSaved=   3.
 NSaved= 3 IEnMin= 3 EnMin= -483.197955743779     IErMin= 3 ErrMin= 7.97D-03
 ErrMax= 7.97D-03  0.00D+00 EMaxC= 1.00D-01 BMatC= 3.13D-02 BMatP= 1.64D-01
 IDIUse=3 WtCom= 9.20D-01 WtEn= 7.97D-02
 Coeff-Com: -0.156D+00 0.370D+00 0.786D+00
 Coeff-En:   0.000D+00 0.000D+00 0.100D+01
 Coeff:     -0.144D+00 0.341D+00 0.803D+00
 Gap=     0.401 Goal=   None    Shift=    0.000
 Gap=     0.338 Goal=   None    Shift=    0.000
 RMSDP=7.31D-04 MaxDP=2.90D-02 DE=-8.47D-02 OVMax= 4.05D-02

 Cycle   4  Pass 1  IDiag  1:
 RMSU=  5.62D-04    CP:  9.41D-01  1.69D+00  8.84D-01
 E= -483.202585522945     Delta-E=       -0.004629779166 Rises=F Damp=F
 DIIS: error= 6.01D-03 at cycle   4 NSaved=   4.
 NSaved= 4 IEnMin= 4 EnMin= -483.202585522945     IErMin= 4 ErrMin= 6.01D-03
 ErrMax= 6.01D-03  0.00D+00 EMaxC= 1.00D-01 BMatC= 1.24D-02 BMatP= 3.13D-02
 IDIUse=3 WtCom= 9.40D-01 WtEn= 6.01D-02
 Coeff-Com: -0.700D-01 0.126D+00 0.467D+00 0.477D+00
 Coeff-En:   0.000D+00 0.000D+00 0.196D+00 0.804D+00
 Coeff:     -0.658D-01 0.118D+00 0.451D+00 0.497D+00
 Gap=     0.406 Goal=   None    Shift=    0.000
 Gap=     0.349 Goal=   None    Shift=    0.000
 RMSDP=3.19D-04 MaxDP=1.09D-02 DE=-4.63D-03 OVMax= 1.08D-02

 Cycle   5  Pass 1  IDiag  1:
 RMSU=  1.85D-04    CP:  9.38D-01  1.74D+00  9.62D-01  7.12D-01
 E= -483.204802230130     Delta-E=       -0.002216707185 Rises=F Damp=F
 DIIS: error= 9.98D-04 at cycle   5 NSaved=   5.
 NSaved= 5 IEnMin= 5 EnMin= -483.204802230130     IErMin= 5 ErrMin= 9.98D-04
 ErrMax= 9.98D-04  0.00D+00 EMaxC= 1.00D-01 BMatC= 1.44D-04 BMatP= 1.24D-02
 IDIUse=3 WtCom= 9.90D-01 WtEn= 9.98D-03
 Coeff-Com:  0.646D-02-0.168D-01-0.478D-02 0.500D-01 0.965D+00
 Coeff-En:   0.000D+00 0.000D+00 0.000D+00 0.000D+00 0.100D+01
 Coeff:      0.639D-02-0.166D-01-0.474D-02 0.495D-01 0.965D+00
 Gap=     0.404 Goal=   None    Shift=    0.000
 Gap=     0.349 Goal=   None    Shift=    0.000
 RMSDP=1.11D-04 MaxDP=3.90D-03 DE=-2.22D-03 OVMax= 7.54D-03

 Cycle   6  Pass 1  IDiag  1:
 RMSU=  4.58D-05    CP:  9.38D-01  1.76D+00  9.81D-01  8.16D-01  1.23D+00
 E= -483.204877434151     Delta-E=       -0.000075204021 Rises=F Damp=F
 DIIS: error= 3.80D-04 at cycle   6 NSaved=   6.
 NSaved= 6 IEnMin= 6 EnMin= -483.204877434151     IErMin= 6 ErrMin= 3.80D-04
 ErrMax= 3.80D-04  0.00D+00 EMaxC= 1.00D-01 BMatC= 5.76D-05 BMatP= 1.44D-04
 IDIUse=3 WtCom= 9.96D-01 WtEn= 3.80D-03
 Coeff-Com:  0.183D-01-0.350D-01-0.101D+00-0.998D-01 0.417D+00 0.801D+00
 Coeff-En:   0.000D+00 0.000D+00 0.000D+00 0.000D+00 0.000D+00 0.100D+01
 Coeff:      0.182D-01-0.348D-01-0.101D+00-0.994D-01 0.415D+00 0.802D+00
 Gap=     0.405 Goal=   None    Shift=    0.000
 Gap=     0.350 Goal=   None    Shift=    0.000
 RMSDP=6.53D-05 MaxDP=1.69D-03 DE=-7.52D-05 OVMax= 3.40D-03

 Cycle   7  Pass 1  IDiag  1:
 RMSU=  2.41D-05    CP:  9.37D-01  1.77D+00  9.95D-01  8.46D-01  1.44D+00
                    CP:  1.12D+00
 E= -483.204901577539     Delta-E=       -0.000024143388 Rises=F Damp=F
 DIIS: error= 1.27D-04 at cycle   7 NSaved=   7.
 NSaved= 7 IEnMin= 7 EnMin= -483.204901577539     IErMin= 7 ErrMin= 1.27D-04
 ErrMax= 1.27D-04  0.00D+00 EMaxC= 1.00D-01 BMatC= 4.57D-06 BMatP= 5.76D-05
 IDIUse=3 WtCom= 9.99D-01 WtEn= 1.27D-03
 Coeff-Com: -0.355D-02 0.719D-02 0.178D-01-0.223D-02-0.124D+00-0.127D+00
 Coeff-Com:  0.123D+01
 Coeff-En:   0.000D+00 0.000D+00 0.000D+00 0.000D+00 0.000D+00 0.000D+00
 Coeff-En:   0.100D+01
 Coeff:     -0.354D-02 0.718D-02 0.178D-01-0.223D-02-0.124D+00-0.127D+00
 Coeff:      0.123D+01
 Gap=     0.405 Goal=   None    Shift=    0.000
 Gap=     0.350 Goal=   None    Shift=    0.000
 RMSDP=1.85D-05 MaxDP=8.99D-04 DE=-2.41D-05 OVMax= 1.90D-03

 Cycle   8  Pass 1  IDiag  1:
 RMSU=  7.77D-06    CP:  9.37D-01  1.77D+00  9.96D-01  8.44D-01  1.48D+00
                    CP:  1.31D+00  1.39D+00
 E= -483.204905020749     Delta-E=       -0.000003443210 Rises=F Damp=F
 DIIS: error= 4.81D-05 at cycle   8 NSaved=   8.
 NSaved= 8 IEnMin= 8 EnMin= -483.204905020749     IErMin= 8 ErrMin= 4.81D-05
 ErrMax= 4.81D-05  0.00D+00 EMaxC= 1.00D-01 BMatC= 9.41D-07 BMatP= 4.57D-06
 IDIUse=1 WtCom= 1.00D+00 WtEn= 0.00D+00
 Coeff-Com: -0.316D-02 0.616D-02 0.178D-01 0.101D-01-0.701D-01-0.146D+00
 Coeff-Com:  0.143D+00 0.104D+01
 Coeff:     -0.316D-02 0.616D-02 0.178D-01 0.101D-01-0.701D-01-0.146D+00
 Coeff:      0.143D+00 0.104D+01
 Gap=     0.405 Goal=   None    Shift=    0.000
 Gap=     0.350 Goal=   None    Shift=    0.000
 RMSDP=8.30D-06 MaxDP=4.30D-04 DE=-3.44D-06 OVMax= 8.33D-04

 Cycle   9  Pass 1  IDiag  1:
 RMSU=  3.07D-06    CP:  9.37D-01  1.77D+00  9.97D-01  8.39D-01  1.50D+00
                    CP:  1.37D+00  1.60D+00  1.39D+00
 E= -483.204905715118     Delta-E=       -0.000000694369 Rises=F Damp=F
 DIIS: error= 2.13D-05 at cycle   9 NSaved=   9.
 NSaved= 9 IEnMin= 9 EnMin= -483.204905715118     IErMin= 9 ErrMin= 2.13D-05
 ErrMax= 2.13D-05  0.00D+00 EMaxC= 1.00D-01 BMatC= 1.64D-07 BMatP= 9.41D-07
 IDIUse=1 WtCom= 1.00D+00 WtEn= 0.00D+00
 Coeff-Com:  0.303D-03-0.703D-03-0.880D-03 0.136D-03 0.168D-01 0.197D-02
 Coeff-Com: -0.223D+00 0.180D+00 0.103D+01
 Coeff:      0.303D-03-0.703D-03-0.880D-03 0.136D-03 0.168D-01 0.197D-02
 Coeff:     -0.223D+00 0.180D+00 0.103D+01
 Gap=     0.405 Goal=   None    Shift=    0.000
 Gap=     0.350 Goal=   None    Shift=    0.000
 RMSDP=3.53D-06 MaxDP=1.96D-04 DE=-6.94D-07 OVMax= 3.54D-04

 Cycle  10  Pass 1  IDiag  1:
 RMSU=  1.28D-06    CP:  9.37D-01  1.77D+00  9.97D-01  8.36D-01  1.50D+00
                    CP:  1.38D+00  1.64D+00  1.70D+00  1.33D+00
 E= -483.204905839871     Delta-E=       -0.000000124752 Rises=F Damp=F
 DIIS: error= 6.61D-06 at cycle  10 NSaved=  10.
 NSaved=10 IEnMin=10 EnMin= -483.204905839871     IErMin=10 ErrMin= 6.61D-06
 ErrMax= 6.61D-06  0.00D+00 EMaxC= 1.00D-01 BMatC= 2.14D-08 BMatP= 1.64D-07
 IDIUse=1 WtCom= 1.00D+00 WtEn= 0.00D+00
 Coeff-Com:  0.738D-03-0.143D-02-0.394D-02-0.292D-02 0.179D-01 0.310D-01
 Coeff-Com: -0.509D-01-0.191D+00 0.810D-01 0.112D+01
 Coeff:      0.738D-03-0.143D-02-0.394D-02-0.292D-02 0.179D-01 0.310D-01
 Coeff:     -0.509D-01-0.191D+00 0.810D-01 0.112D+01
 Gap=     0.405 Goal=   None    Shift=    0.000
 Gap=     0.351 Goal=   None    Shift=    0.000
 RMSDP=1.53D-06 MaxDP=7.57D-05 DE=-1.25D-07 OVMax= 1.19D-04

 Cycle  11  Pass 1  IDiag  1:
 RMSU=  4.46D-07    CP:  9.37D-01  1.77D+00  9.98D-01  8.35D-01  1.50D+00
                    CP:  1.38D+00  1.65D+00  1.81D+00  1.59D+00  1.32D+00
 E= -483.204905856867     Delta-E=       -0.000000016996 Rises=F Damp=F
 DIIS: error= 1.54D-06 at cycle  11 NSaved=  11.
 NSaved=11 IEnMin=11 EnMin= -483.204905856867     IErMin=11 ErrMin= 1.54D-06
 ErrMax= 1.54D-06  0.00D+00 EMaxC= 1.00D-01 BMatC= 1.37D-09 BMatP= 2.14D-08
 IDIUse=1 WtCom= 1.00D+00 WtEn= 0.00D+00
 Coeff-Com: -0.412D-04 0.891D-04 0.209D-03 0.213D-04-0.122D-02-0.465D-03
 Coeff-Com:  0.186D-01-0.122D-01-0.966D-01-0.771D-03 0.109D+01
 Coeff:     -0.412D-04 0.891D-04 0.209D-03 0.213D-04-0.122D-02-0.465D-03
 Coeff:      0.186D-01-0.122D-01-0.966D-01-0.771D-03 0.109D+01
 Gap=     0.405 Goal=   None    Shift=    0.000
 Gap=     0.350 Goal=   None    Shift=    0.000
 RMSDP=3.29D-07 MaxDP=1.30D-05 DE=-1.70D-08 OVMax= 1.49D-05

 Cycle  12  Pass 1  IDiag  1:
 RMSU=  1.55D-07    CP:  9.37D-01  1.77D+00  9.98D-01  8.35D-01  1.50D+00
                    CP:  1.38D+00  1.65D+00  1.82D+00  1.63D+00  1.46D+00
                    CP:  1.30D+00
 E= -483.204905857808     Delta-E=       -0.000000000941 Rises=F Damp=F
 DIIS: error= 4.14D-07 at cycle  12 NSaved=  12.
 NSaved=12 IEnMin=12 EnMin= -483.204905857808     IErMin=12 ErrMin= 4.14D-07
 ErrMax= 4.14D-07  0.00D+00 EMaxC= 1.00D-01 BMatC= 2.51D-10 BMatP= 1.37D-09
 IDIUse=1 WtCom= 1.00D+00 WtEn= 0.00D+00
 Coeff-Com: -0.104D-03 0.203D-03 0.554D-03 0.363D-03-0.258D-02-0.409D-02
 Coeff-Com:  0.122D-01 0.205D-01-0.383D-01-0.140D+00 0.316D+00 0.835D+00
 Coeff:     -0.104D-03 0.203D-03 0.554D-03 0.363D-03-0.258D-02-0.409D-02
 Coeff:      0.122D-01 0.205D-01-0.383D-01-0.140D+00 0.316D+00 0.835D+00
 Gap=     0.405 Goal=   None    Shift=    0.000
 Gap=     0.350 Goal=   None    Shift=    0.000
 RMSDP=1.02D-07 MaxDP=3.01D-06 DE=-9.41D-10 OVMax= 3.61D-06

 Cycle  13  Pass 1  IDiag  1:
 RMSU=  5.80D-08    CP:  9.37D-01  1.77D+00  9.98D-01  8.35D-01  1.50D+00
                    CP:  1.38D+00  1.65D+00  1.82D+00  1.63D+00  1.48D+00
                    CP:  1.44D+00  1.16D+00
 E= -483.204905857927     Delta-E=       -0.000000000119 Rises=F Damp=F
 DIIS: error= 1.63D-07 at cycle  13 NSaved=  13.
 NSaved=13 IEnMin=13 EnMin= -483.204905857927     IErMin=13 ErrMin= 1.63D-07
 ErrMax= 1.63D-07  0.00D+00 EMaxC= 1.00D-01 BMatC= 2.83D-11 BMatP= 2.51D-10
 IDIUse=1 WtCom= 1.00D+00 WtEn= 0.00D+00
 Coeff-Com: -0.140D-04 0.262D-04 0.740D-04 0.649D-04-0.371D-03-0.846D-03
 Coeff-Com: -0.390D-03 0.621D-02 0.854D-02-0.292D-01-0.117D+00 0.161D+00
 Coeff-Com:  0.972D+00
 Coeff:     -0.140D-04 0.262D-04 0.740D-04 0.649D-04-0.371D-03-0.846D-03
 Coeff:     -0.390D-03 0.621D-02 0.854D-02-0.292D-01-0.117D+00 0.161D+00
 Coeff:      0.972D+00
 Gap=     0.405 Goal=   None    Shift=    0.000
 Gap=     0.351 Goal=   None    Shift=    0.000
 RMSDP=5.41D-08 MaxDP=1.40D-06 DE=-1.19D-10 OVMax= 2.37D-06

 Cycle  14  Pass 1  IDiag  1:
 RMSU=  2.02D-08    CP:  9.37D-01  1.77D+00  9.98D-01  8.35D-01  1.50D+00
                    CP:  1.38D+00  1.65D+00  1.81D+00  1.63D+00  1.49D+00
                    CP:  1.48D+00  1.33D+00  1.15D+00
 E= -483.204905857943     Delta-E=       -0.000000000016 Rises=F Damp=F
 DIIS: error= 4.22D-08 at cycle  14 NSaved=  14.
 NSaved=14 IEnMin=14 EnMin= -483.204905857943     IErMin=14 ErrMin= 4.22D-08
 ErrMax= 4.22D-08  0.00D+00 EMaxC= 1.00D-01 BMatC= 1.56D-12 BMatP= 2.83D-11
 IDIUse=1 WtCom= 1.00D+00 WtEn= 0.00D+00
 Coeff-Com:  0.801D-05-0.157D-04-0.441D-04-0.304D-04 0.203D-03 0.335D-03
 Coeff-Com: -0.910D-03-0.171D-02 0.283D-02 0.115D-01-0.206D-01-0.719D-01
 Coeff-Com: -0.517D-01 0.113D+01
 Coeff:      0.801D-05-0.157D-04-0.441D-04-0.304D-04 0.203D-03 0.335D-03
 Coeff:     -0.910D-03-0.171D-02 0.283D-02 0.115D-01-0.206D-01-0.719D-01
 Coeff:     -0.517D-01 0.113D+01
 Gap=     0.405 Goal=   None    Shift=    0.000
 Gap=     0.351 Goal=   None    Shift=    0.000
 RMSDP=1.46D-08 MaxDP=3.44D-07 DE=-1.61D-11 OVMax= 6.99D-07

 Cycle  15  Pass 1  IDiag  1:
 RMSU=  5.43D-09    CP:  9.37D-01  1.77D+00  9.98D-01  8.35D-01  1.50D+00
                    CP:  1.38D+00  1.65D+00  1.81D+00  1.63D+00  1.48D+00
                    CP:  1.48D+00  1.37D+00  1.27D+00  1.31D+00
 E= -483.204905857946     Delta-E=       -0.000000000003 Rises=F Damp=F
 DIIS: error= 1.25D-08 at cycle  15 NSaved=  15.
 NSaved=15 IEnMin=15 EnMin= -483.204905857946     IErMin=15 ErrMin= 1.25D-08
 ErrMax= 1.25D-08  0.00D+00 EMaxC= 1.00D-01 BMatC= 1.67D-13 BMatP= 1.56D-12
 IDIUse=1 WtCom= 1.00D+00 WtEn= 0.00D+00
 Coeff-Com:  0.898D-09 0.131D-06 0.590D-07-0.153D-05 0.966D-05 0.354D-04
 Coeff-Com:  0.132D-03-0.324D-03-0.112D-02 0.101D-02 0.131D-01-0.499D-02
 Coeff-Com: -0.804D-01-0.129D+00 0.120D+01
 Coeff:      0.898D-09 0.131D-06 0.590D-07-0.153D-05 0.966D-05 0.354D-04
 Coeff:      0.132D-03-0.324D-03-0.112D-02 0.101D-02 0.131D-01-0.499D-02
 Coeff:     -0.804D-01-0.129D+00 0.120D+01
 Gap=     0.405 Goal=   None    Shift=    0.000
 Gap=     0.351 Goal=   None    Shift=    0.000
 RMSDP=4.24D-09 MaxDP=9.18D-08 DE=-3.18D-12 OVMax= 1.39D-07

 Error on total polarization charges =  0.00915
 SCF Done:  E(UwB97XD) =  -483.204905858     A.U. after   15 cycles
            NFock= 15  Conv=0.42D-08     -V/T= 2.0100
 <Sx>= 0.0000 <Sy>= 0.0000 <Sz>= 0.5000 <S**2>= 0.7539 S= 0.5020
 <L.S>=  0.00000000000    
 KE= 4.783993696452D+02 PE=-2.556952856920D+03 EE= 8.774305324285D+02
 Annihilation of the first spin contaminant:
 S**2 before annihilation     0.7539,   after     0.7500
 Leave Link  502 at Wed Feb 28 20:58:53 2024, MaxMem=  2147483648 cpu:             663.1 elap:              24.0
 (Enter /software/gaussian-16RevA.03-el7-x86_64/g16/l508.exe)
 QCSCF skips out because SCF is already converged.
 Leave Link  508 at Wed Feb 28 20:58:53 2024, MaxMem=  2147483648 cpu:               0.1 elap:               0.0
 (Enter /software/gaussian-16RevA.03-el7-x86_64/g16/l801.exe)
 DoSCS=F DFT=T ScalE2(SS,OS)=  1.000000  1.000000
 Range of M.O.s used for correlation:     1   190
 NBasis=   190 NAE=    44 NBE=    43 NFC=     0 NFV=     0
 NROrb=    190 NOA=    44 NOB=    43 NVA=   146 NVB=   147
 Leave Link  801 at Wed Feb 28 20:58:53 2024, MaxMem=  2147483648 cpu:               0.5 elap:               0.0
 (Enter /software/gaussian-16RevA.03-el7-x86_64/g16/l1101.exe)
 Using compressed storage, NAtomX=    29.
 Will process     30 centers per pass.
   1 Symmetry operations used in ECPInt.
 ECPInt:  NShTT=    5253 NPrTT=   21107 LenC2=    5228 LenP2D=   16402.
 LDataN:  DoStor=T MaxTD1= 5 Len=  102
 R6Disp: Adding Grimme-D2 dispersion energy 1st derivatives to the gradient.
 Leave Link 1101 at Wed Feb 28 20:58:54 2024, MaxMem=  2147483648 cpu:              10.0 elap:               0.4
 (Enter /software/gaussian-16RevA.03-el7-x86_64/g16/l1102.exe)
 Symmetrizing basis deriv contribution to polar:
 IMax=3 JMax=2 DiffMx= 0.00D+00
 Leave Link 1102 at Wed Feb 28 20:58:54 2024, MaxMem=  2147483648 cpu:               0.8 elap:               0.1
 (Enter /software/gaussian-16RevA.03-el7-x86_64/g16/l1110.exe)
 Forming Gx(P) for the SCF density, NAtomX=    29.
 Integral derivatives from FoFJK, PRISM(SPDF).
 Do as many integral derivatives as possible in FoFJK.
 G2DrvN: MDV=    2147481424.
 G2DrvN: will do    30 centers at a time, making    1 passes.
 Calling FoFCou, ICntrl=  3107 FMM=F I1Cent=   0 AccDes= 0.00D+00.
 FoFJK:  IHMeth= 1 ICntrl=    3107 DoSepK=T KAlg= 0 I1Cent=           0 FoldK=F
 IRaf=         1 NMat=       1 IRICut=       1 DoRegI=T DoRafI=F ISym2E= 0 IDoP0=0 IntGTp=1.
 FoFCou: FMM=F IPFlag=           0 FMFlag=      100000 FMFlg1=           0
         NFxFlg=           0 DoJE=F BraDBF=F KetDBF=F FulRan=T
         wScrn=  0.000000 ICntrl=      3507 IOpCl=  0 I1Cent=           0 NGrid=           0
         NMat0=    1 NMatS0=      1 NMatT0=    0 NMatD0=    1 NMtDS0=    0 NMtDT0=    0
 Symmetry not used in FoFCou.
 NEqPCM:  Using equilibrium solvation (IEInf=0, Eps=  37.2190, EpsInf=   2.0463)
 G2PCM: DoFxE=T DoFxN=T DoGrad=T DoDP/DQ/DG/TGxP=FFFF NFrqRd=   0 IEInf=0 SqF1=F DoCFld=F IF1Alg=4.
 GePol: Maximum number of non-zero 1st derivatives   =     165
 End of G2Drv F.D. properties file   721 does not exist.
 End of G2Drv F.D. properties file   722 does not exist.
 End of G2Drv F.D. properties file   788 does not exist.
 Leave Link 1110 at Wed Feb 28 20:59:23 2024, MaxMem=  2147483648 cpu:             823.6 elap:              29.5
 (Enter /software/gaussian-16RevA.03-el7-x86_64/g16/l1002.exe)
 Minotr:  UHF open shell wavefunction.
          IDoAtm=11111111111111111111111111111
 NEqPCM:  Using equilibrium solvation (IEInf=0, Eps=  37.2190, EpsInf=   2.0463)
          Direct CPHF calculation.
          Differentiating once with respect to electric field.
                with respect to dipole field.
          Differentiating once with respect to nuclear coordinates.
          Requested convergence is 1.0D-08 RMS, and 1.0D-07 maximum.
          Secondary convergence is 1.0D-12 RMS, and 1.0D-12 maximum.
          NewPWx=T KeepS1=F KeepF1=F KeepIn=T MapXYZ=F SortEE=F KeepMc=T.
         8643 words used for storage of precomputed grid.
 Keep R1 and R2 ints in memory in canonical form, NReq=687285793.
 FoFCou: FMM=F IPFlag=           0 FMFlag=           0 FMFlg1=           0
         NFxFlg=           0 DoJE=F BraDBF=F KetDBF=F FulRan=T
         wScrn=  0.000000 ICntrl=       600 IOpCl=  0 I1Cent=           0 NGrid=           0
         NMat0=    1 NMatS0=  18145 NMatT0=    0 NMatD0=    1 NMtDS0=    0 NMtDT0=    0
 Symmetry not used in FoFCou.
 Two-electron integral symmetry not used.
          MDV=    2147483648 using IRadAn=       1.
          Solving linear equations simultaneously, MaxMat=       0.
          There are    90 degrees of freedom in the 1st order CPHF.  IDoFFX=6 NUNeed=     3.
     87 vectors produced by pass  0 Test12= 1.42D-14 1.11D-09 XBig12= 7.87D+01 2.40D+00.
 AX will form    87 AO Fock derivatives at one time.
     87 vectors produced by pass  1 Test12= 1.42D-14 1.11D-09 XBig12= 6.97D+00 3.73D-01.
     87 vectors produced by pass  2 Test12= 1.42D-14 1.11D-09 XBig12= 4.62D-01 1.86D-01.
     87 vectors produced by pass  3 Test12= 1.42D-14 1.11D-09 XBig12= 4.75D-03 1.28D-02.
     87 vectors produced by pass  4 Test12= 1.42D-14 1.11D-09 XBig12= 3.52D-05 1.45D-03.
     87 vectors produced by pass  5 Test12= 1.42D-14 1.11D-09 XBig12= 2.97D-07 9.58D-05.
     86 vectors produced by pass  6 Test12= 1.42D-14 1.11D-09 XBig12= 2.71D-09 4.60D-06.
     26 vectors produced by pass  7 Test12= 1.42D-14 1.11D-09 XBig12= 1.56D-11 2.98D-07.
      3 vectors produced by pass  8 Test12= 1.42D-14 1.11D-09 XBig12= 1.25D-13 4.76D-08.
      1 vectors produced by pass  9 Test12= 1.42D-14 1.11D-09 XBig12= 8.97D-16 3.37D-09.
 InvSVY:  IOpt=1 It=  1 EMax= 5.33D-15
 Solved reduced A of dimension   638 with    90 vectors.
 FullF1:  Do perturbations      1 to       3.
 Isotropic polarizability for W=    0.000000      129.55 Bohr**3.
 End of Minotr F.D. properties file   721 does not exist.
 End of Minotr F.D. properties file   722 does not exist.
 End of Minotr F.D. properties file   788 does not exist.
 Leave Link 1002 at Wed Feb 28 21:00:07 2024, MaxMem=  2147483648 cpu:            1219.8 elap:              44.2
 (Enter /software/gaussian-16RevA.03-el7-x86_64/g16/l601.exe)
 Copying SCF densities to generalized density rwf, IOpCl= 1 IROHF=0.

 **********************************************************************

            Population analysis using the SCF density.

 **********************************************************************

 Alpha  occ. eigenvalues --  -19.25154 -14.52847 -10.34191 -10.34184 -10.29012
 Alpha  occ. eigenvalues --  -10.29010 -10.28934 -10.28089 -10.28085 -10.27775
 Alpha  occ. eigenvalues --  -10.27774  -1.19292  -0.96427  -0.91663  -0.86108
 Alpha  occ. eigenvalues --   -0.81097  -0.78807  -0.77735  -0.77233  -0.69223
 Alpha  occ. eigenvalues --   -0.69044  -0.60709  -0.57907  -0.57411  -0.56662
 Alpha  occ. eigenvalues --   -0.55222  -0.53223  -0.51499  -0.51413  -0.49467
 Alpha  occ. eigenvalues --   -0.49100  -0.47482  -0.47477  -0.45971  -0.45601
 Alpha  occ. eigenvalues --   -0.45165  -0.43868  -0.43416  -0.41710  -0.40939
 Alpha  occ. eigenvalues --   -0.40394  -0.39331  -0.34046  -0.27600
 Alpha virt. eigenvalues --    0.12938   0.15773   0.15905   0.16491   0.16941
 Alpha virt. eigenvalues --    0.19328   0.19934   0.21488   0.21816   0.22336
 Alpha virt. eigenvalues --    0.22656   0.22839   0.23686   0.24767   0.25516
 Alpha virt. eigenvalues --    0.25870   0.26472   0.27208   0.27713   0.28528
 Alpha virt. eigenvalues --    0.28672   0.29714   0.30852   0.32313   0.33896
 Alpha virt. eigenvalues --    0.34486   0.35492   0.37239   0.39674   0.47674
 Alpha virt. eigenvalues --    0.48579   0.49106   0.50411   0.52128   0.54005
 Alpha virt. eigenvalues --    0.56426   0.56783   0.61880   0.62346   0.64983
 Alpha virt. eigenvalues --    0.65655   0.68111   0.68477   0.70207   0.72158
 Alpha virt. eigenvalues --    0.72771   0.73768   0.74098   0.74891   0.75246
 Alpha virt. eigenvalues --    0.77791   0.78116   0.78170   0.78482   0.78942
 Alpha virt. eigenvalues --    0.80643   0.80794   0.81030   0.81527   0.81585
 Alpha virt. eigenvalues --    0.81806   0.82128   0.83340   0.84449   0.84773
 Alpha virt. eigenvalues --    0.85006   0.85580   0.86044   0.86977   0.87014
 Alpha virt. eigenvalues --    0.89301   0.91192   0.94941   0.98243   0.98886
 Alpha virt. eigenvalues --    1.04488   1.05483   1.07239   1.11040   1.15311
 Alpha virt. eigenvalues --    1.16940   1.20016   1.23855   1.24276   1.26783
 Alpha virt. eigenvalues --    1.28559   1.32994   1.36211   1.36861   1.46226
 Alpha virt. eigenvalues --    1.51099   1.51390   1.58866   1.61388   1.72180
 Alpha virt. eigenvalues --    1.81031   1.84147   1.84646   1.86699   1.87920
 Alpha virt. eigenvalues --    1.91075   1.91994   1.93556   1.95039   1.97201
 Alpha virt. eigenvalues --    1.99448   1.99728   2.02034   2.06619   2.06653
 Alpha virt. eigenvalues --    2.10506   2.12876   2.14257   2.16788   2.18644
 Alpha virt. eigenvalues --    2.22389   2.23851   2.25456   2.26432   2.26633
 Alpha virt. eigenvalues --    2.28864   2.28872   2.36079   2.36412   2.40115
 Alpha virt. eigenvalues --    2.40179   2.44112   2.44958   2.47849   2.51767
 Alpha virt. eigenvalues --    2.55492   2.61739   2.67122   2.71356   2.74067
 Alpha virt. eigenvalues --    2.76240   2.76251   2.80483   2.81069   2.82002
 Alpha virt. eigenvalues --    2.86505   2.98262   3.07814   3.24007   3.42745
 Alpha virt. eigenvalues --    3.83236
  Beta  occ. eigenvalues --  -19.23927 -14.51852 -10.34226 -10.34220 -10.29007
  Beta  occ. eigenvalues --  -10.29005 -10.28935 -10.28038 -10.28033 -10.27756
  Beta  occ. eigenvalues --  -10.27755  -1.16747  -0.95531  -0.91531  -0.85607
  Beta  occ. eigenvalues --   -0.79628  -0.78606  -0.77625  -0.77209  -0.68981
  Beta  occ. eigenvalues --   -0.68625  -0.59985  -0.57197  -0.57162  -0.55237
  Beta  occ. eigenvalues --   -0.53341  -0.53148  -0.51438  -0.50990  -0.48850
  Beta  occ. eigenvalues --   -0.48617  -0.47371  -0.47163  -0.45349  -0.45113
  Beta  occ. eigenvalues --   -0.44985  -0.43376  -0.41881  -0.41550  -0.40804
  Beta  occ. eigenvalues --   -0.39262  -0.38372  -0.32699
  Beta virt. eigenvalues --    0.02351   0.12988   0.15783   0.15926   0.16745
  Beta virt. eigenvalues --    0.16978   0.19401   0.20024   0.21682   0.21824
  Beta virt. eigenvalues --    0.22351   0.22810   0.22859   0.23962   0.24822
  Beta virt. eigenvalues --    0.25540   0.26034   0.26548   0.27350   0.27978
  Beta virt. eigenvalues --    0.28559   0.28699   0.30213   0.31053   0.32837
  Beta virt. eigenvalues --    0.33930   0.34671   0.35631   0.37573   0.40948
  Beta virt. eigenvalues --    0.47833   0.48591   0.49215   0.50483   0.52196
  Beta virt. eigenvalues --    0.54575   0.56887   0.56919   0.62199   0.62459
  Beta virt. eigenvalues --    0.65214   0.65932   0.68163   0.68682   0.70373
  Beta virt. eigenvalues --    0.72210   0.72784   0.73815   0.74136   0.75044
  Beta virt. eigenvalues --    0.75310   0.77822   0.78175   0.78201   0.78570
  Beta virt. eigenvalues --    0.79008   0.80727   0.80820   0.81140   0.81567
  Beta virt. eigenvalues --    0.81618   0.81940   0.82230   0.83440   0.84485
  Beta virt. eigenvalues --    0.84879   0.85055   0.85680   0.86102   0.87018
  Beta virt. eigenvalues --    0.87070   0.89353   0.91284   0.94975   0.98776
  Beta virt. eigenvalues --    0.98903   1.05151   1.06293   1.08546   1.11269
  Beta virt. eigenvalues --    1.15368   1.18822   1.20216   1.24525   1.25360
  Beta virt. eigenvalues --    1.27389   1.28824   1.33690   1.36467   1.37402
  Beta virt. eigenvalues --    1.46385   1.51495   1.51884   1.59542   1.61693
  Beta virt. eigenvalues --    1.72408   1.81079   1.84594   1.84997   1.87718
  Beta virt. eigenvalues --    1.88007   1.91337   1.92542   1.93719   1.95521
  Beta virt. eigenvalues --    1.97389   1.99590   1.99762   2.02128   2.06692
  Beta virt. eigenvalues --    2.06765   2.10656   2.12943   2.14315   2.17237
  Beta virt. eigenvalues --    2.18733   2.22862   2.24027   2.25527   2.26698
  Beta virt. eigenvalues --    2.27012   2.28994   2.29181   2.36656   2.36800
  Beta virt. eigenvalues --    2.40326   2.40359   2.44577   2.45454   2.48297
  Beta virt. eigenvalues --    2.52559   2.55563   2.62437   2.68128   2.72139
  Beta virt. eigenvalues --    2.74840   2.77069   2.78827   2.81476   2.82960
  Beta virt. eigenvalues --    2.83172   2.86555   2.99595   3.09568   3.28028
  Beta virt. eigenvalues --    3.43657   3.85073
          Condensed to atoms (all electrons):
               1          2          3          4          5          6
     1  C    4.792484   0.406580  -0.047561  -0.009513  -0.047559   0.406574
     2  C    0.406580   4.975321   0.330339  -0.041590   0.004144  -0.067847
     3  C   -0.047561   0.330339   5.110155   0.237331  -0.101638   0.004147
     4  N   -0.009513  -0.041590   0.237331   6.719733   0.237296  -0.041583
     5  C   -0.047559   0.004144  -0.101638   0.237296   5.110146   0.330339
     6  C    0.406574  -0.067847   0.004147  -0.041583   0.330339   4.975363
     7  C   -0.011115   0.001085  -0.006564  -0.058212   0.406119  -0.077597
     8  C    0.010646  -0.002193   0.009766  -0.060816   0.396945  -0.064213
     9  O   -0.000139   0.006521  -0.067405   0.212344  -0.067385   0.006518
    10  C   -0.011118  -0.077578   0.406118  -0.058207  -0.006561   0.001085
    11  C    0.010645  -0.064202   0.396944  -0.060842   0.009770  -0.002193
    12  H    0.366786  -0.014675   0.007227   0.000037   0.007227  -0.014675
    13  H    0.376630  -0.026602  -0.006159  -0.002510  -0.006161  -0.026603
    14  H   -0.014555   0.360614  -0.015204   0.004803  -0.000228   0.008127
    15  H   -0.027036   0.357888  -0.013171  -0.002347  -0.004295  -0.000180
    16  H   -0.027037  -0.000179  -0.004295  -0.002347  -0.013173   0.357886
    17  H   -0.014556   0.008126  -0.000228   0.004803  -0.015204   0.360619
    18  H   -0.000423  -0.000109   0.000216  -0.009304  -0.016601   0.009953
    19  H   -0.000099   0.000007  -0.000062   0.005398  -0.020190  -0.003438
    20  H    0.004563  -0.001219   0.000919  -0.002527  -0.015102  -0.007472
    21  H   -0.000301   0.000131  -0.000087   0.001893  -0.012563  -0.008554
    22  H    0.000293  -0.000035  -0.000024   0.005513  -0.025032  -0.003667
    23  H   -0.000350  -0.000136   0.000818  -0.009230  -0.014744   0.008959
    24  H   -0.000098  -0.003439  -0.020189   0.005399  -0.000062   0.000007
    25  H   -0.000423   0.009953  -0.016595  -0.009312   0.000215  -0.000109
    26  H    0.004562  -0.007470  -0.015114  -0.002525   0.000920  -0.001218
    27  H   -0.000302  -0.008552  -0.012572   0.001897  -0.000087   0.000131
    28  H   -0.000350   0.008957  -0.014742  -0.009229   0.000817  -0.000136
    29  H    0.000294  -0.003665  -0.025035   0.005513  -0.000024  -0.000035
               7          8          9         10         11         12
     1  C   -0.011115   0.010646  -0.000139  -0.011118   0.010645   0.366786
     2  C    0.001085  -0.002193   0.006521  -0.077578  -0.064202  -0.014675
     3  C   -0.006564   0.009766  -0.067405   0.406118   0.396944   0.007227
     4  N   -0.058212  -0.060816   0.212344  -0.058207  -0.060842   0.000037
     5  C    0.406119   0.396945  -0.067385  -0.006561   0.009770   0.007227
     6  C   -0.077597  -0.064213   0.006518   0.001085  -0.002193  -0.014675
     7  C    4.956993  -0.081855  -0.009642   0.003146  -0.000695  -0.000271
     8  C   -0.081855   4.916270   0.004633  -0.000694  -0.000023  -0.000267
     9  O   -0.009642   0.004633   8.207659  -0.009656   0.004640   0.000010
    10  C    0.003146  -0.000694  -0.009656   4.956963  -0.081849  -0.000270
    11  C   -0.000695  -0.000023   0.004640  -0.081849   4.916281  -0.000267
    12  H   -0.000271  -0.000267   0.000010  -0.000270  -0.000267   0.577715
    13  H    0.004429   0.000072  -0.000049   0.004426   0.000072  -0.025645
    14  H   -0.000013   0.000038  -0.000126  -0.004539  -0.004593  -0.003967
    15  H    0.000311  -0.000228  -0.000213   0.009515  -0.007941  -0.006576
    16  H    0.009516  -0.007942  -0.000213   0.000311  -0.000228  -0.006576
    17  H   -0.004541  -0.004594  -0.000126  -0.000013   0.000038  -0.003967
    18  H    0.370337  -0.008140   0.015973   0.000900  -0.000139   0.000013
    19  H    0.378389  -0.002378   0.000028   0.000052   0.000018  -0.000005
    20  H    0.379179   0.007308  -0.000236   0.000328   0.000014  -0.000195
    21  H    0.009021   0.370691  -0.001352   0.000055  -0.000113  -0.000025
    22  H   -0.003796   0.381467   0.000716   0.000016   0.000005  -0.000011
    23  H   -0.006057   0.374156   0.017195   0.000002  -0.000043   0.000009
    24  H    0.000052   0.000018   0.000027   0.378386  -0.002380  -0.000005
    25  H    0.000902  -0.000139   0.015986   0.370330  -0.008139   0.000013
    26  H    0.000318   0.000014  -0.000236   0.379186   0.007308  -0.000195
    27  H    0.000055  -0.000113  -0.001354   0.009022   0.370690  -0.000025
    28  H    0.000002  -0.000043   0.017195  -0.006055   0.374162   0.000009
    29  H    0.000016   0.000005   0.000717  -0.003797   0.381459  -0.000011
              13         14         15         16         17         18
     1  C    0.376630  -0.014555  -0.027036  -0.027037  -0.014556  -0.000423
     2  C   -0.026602   0.360614   0.357888  -0.000179   0.008126  -0.000109
     3  C   -0.006159  -0.015204  -0.013171  -0.004295  -0.000228   0.000216
     4  N   -0.002510   0.004803  -0.002347  -0.002347   0.004803  -0.009304
     5  C   -0.006161  -0.000228  -0.004295  -0.013173  -0.015204  -0.016601
     6  C   -0.026603   0.008127  -0.000180   0.357886   0.360619   0.009953
     7  C    0.004429  -0.000013   0.000311   0.009516  -0.004541   0.370337
     8  C    0.000072   0.000038  -0.000228  -0.007942  -0.004594  -0.008140
     9  O   -0.000049  -0.000126  -0.000213  -0.000213  -0.000126   0.015973
    10  C    0.004426  -0.004539   0.009515   0.000311  -0.000013   0.000900
    11  C    0.000072  -0.004593  -0.007941  -0.000228   0.000038  -0.000139
    12  H   -0.025645  -0.003967  -0.006576  -0.006576  -0.003967   0.000013
    13  H    0.587797  -0.005382   0.006904   0.006905  -0.005382  -0.000279
    14  H   -0.005382   0.575936  -0.024357   0.000023  -0.000310   0.000005
    15  H    0.006904  -0.024357   0.596172   0.006089   0.000023   0.000004
    16  H    0.006905   0.000023   0.006089   0.596174  -0.024355  -0.000331
    17  H   -0.005382  -0.000310   0.000023  -0.024355   0.575932   0.000042
    18  H   -0.000279   0.000005   0.000004  -0.000331   0.000042   0.547036
    19  H   -0.000027  -0.000003  -0.000006  -0.000170   0.003538  -0.018241
    20  H    0.004527   0.000043  -0.000017   0.000014  -0.000624  -0.019870
    21  H    0.000017   0.000001   0.000072   0.007384  -0.000248  -0.000052
    22  H   -0.000029   0.000000   0.000008  -0.000857   0.003993  -0.000118
    23  H    0.000009   0.000001   0.000009   0.000054  -0.000354   0.005525
    24  H   -0.000027   0.003536  -0.000170  -0.000006  -0.000003   0.000005
    25  H   -0.000279   0.000042  -0.000331   0.000004   0.000005   0.000218
    26  H    0.004530  -0.000624   0.000015  -0.000017   0.000043  -0.000230
    27  H    0.000017  -0.000248   0.007383   0.000072   0.000001   0.000004
    28  H    0.000009  -0.000354   0.000054   0.000009   0.000001  -0.000035
    29  H   -0.000028   0.003992  -0.000857   0.000008   0.000000  -0.000002
              19         20         21         22         23         24
     1  C   -0.000099   0.004563  -0.000301   0.000293  -0.000350  -0.000098
     2  C    0.000007  -0.001219   0.000131  -0.000035  -0.000136  -0.003439
     3  C   -0.000062   0.000919  -0.000087  -0.000024   0.000818  -0.020189
     4  N    0.005398  -0.002527   0.001893   0.005513  -0.009230   0.005399
     5  C   -0.020190  -0.015102  -0.012563  -0.025032  -0.014744  -0.000062
     6  C   -0.003438  -0.007472  -0.008554  -0.003667   0.008959   0.000007
     7  C    0.378389   0.379179   0.009021  -0.003796  -0.006057   0.000052
     8  C   -0.002378   0.007308   0.370691   0.381467   0.374156   0.000018
     9  O    0.000028  -0.000236  -0.001352   0.000716   0.017195   0.000027
    10  C    0.000052   0.000328   0.000055   0.000016   0.000002   0.378386
    11  C    0.000018   0.000014  -0.000113   0.000005  -0.000043  -0.002380
    12  H   -0.000005  -0.000195  -0.000025  -0.000011   0.000009  -0.000005
    13  H   -0.000027   0.004527   0.000017  -0.000029   0.000009  -0.000027
    14  H   -0.000003   0.000043   0.000001   0.000000   0.000001   0.003536
    15  H   -0.000006  -0.000017   0.000072   0.000008   0.000009  -0.000170
    16  H   -0.000170   0.000014   0.007384  -0.000857   0.000054  -0.000006
    17  H    0.003538  -0.000624  -0.000248   0.003993  -0.000354  -0.000003
    18  H   -0.018241  -0.019870  -0.000052  -0.000118   0.005525   0.000005
    19  H    0.548384  -0.018879  -0.000056   0.003169  -0.000696  -0.000001
    20  H   -0.018879   0.535232  -0.000320  -0.000055   0.000019   0.000054
    21  H   -0.000056  -0.000320   0.554315  -0.017738  -0.019624  -0.000002
    22  H    0.003169  -0.000055  -0.017738   0.553398  -0.018892  -0.000000
    23  H   -0.000696   0.000019  -0.019624  -0.018892   0.538372   0.000001
    24  H   -0.000001   0.000054  -0.000002  -0.000000   0.000001   0.548391
    25  H    0.000005  -0.000231   0.000004  -0.000002  -0.000035  -0.018240
    26  H    0.000054   0.005641  -0.000004   0.000000  -0.000001  -0.018880
    27  H   -0.000002  -0.000005   0.000153   0.000003  -0.000004  -0.000056
    28  H    0.000001  -0.000001  -0.000004  -0.000001  -0.000023  -0.000696
    29  H   -0.000000   0.000000   0.000003  -0.000000  -0.000001   0.003169
              25         26         27         28         29
     1  C   -0.000423   0.004562  -0.000302  -0.000350   0.000294
     2  C    0.009953  -0.007470  -0.008552   0.008957  -0.003665
     3  C   -0.016595  -0.015114  -0.012572  -0.014742  -0.025035
     4  N   -0.009312  -0.002525   0.001897  -0.009229   0.005513
     5  C    0.000215   0.000920  -0.000087   0.000817  -0.000024
     6  C   -0.000109  -0.001218   0.000131  -0.000136  -0.000035
     7  C    0.000902   0.000318   0.000055   0.000002   0.000016
     8  C   -0.000139   0.000014  -0.000113  -0.000043   0.000005
     9  O    0.015986  -0.000236  -0.001354   0.017195   0.000717
    10  C    0.370330   0.379186   0.009022  -0.006055  -0.003797
    11  C   -0.008139   0.007308   0.370690   0.374162   0.381459
    12  H    0.000013  -0.000195  -0.000025   0.000009  -0.000011
    13  H   -0.000279   0.004530   0.000017   0.000009  -0.000028
    14  H    0.000042  -0.000624  -0.000248  -0.000354   0.003992
    15  H   -0.000331   0.000015   0.007383   0.000054  -0.000857
    16  H    0.000004  -0.000017   0.000072   0.000009   0.000008
    17  H    0.000005   0.000043   0.000001   0.000001   0.000000
    18  H    0.000218  -0.000230   0.000004  -0.000035  -0.000002
    19  H    0.000005   0.000054  -0.000002   0.000001  -0.000000
    20  H   -0.000231   0.005641  -0.000005  -0.000001   0.000000
    21  H    0.000004  -0.000004   0.000153  -0.000004   0.000003
    22  H   -0.000002   0.000000   0.000003  -0.000001  -0.000000
    23  H   -0.000035  -0.000001  -0.000004  -0.000023  -0.000001
    24  H   -0.018240  -0.018880  -0.000056  -0.000696   0.003169
    25  H    0.547033  -0.019871  -0.000052   0.005522  -0.000118
    26  H   -0.019871   0.535233  -0.000321   0.000019  -0.000055
    27  H   -0.000052  -0.000321   0.554327  -0.019625  -0.017735
    28  H    0.005522   0.000019  -0.019625   0.538363  -0.018894
    29  H   -0.000118  -0.000055  -0.017735  -0.018894   0.553409
          Atomic-Atomic Spin Densities.
               1          2          3          4          5          6
     1  C    0.014624  -0.008487   0.006535  -0.000348   0.006535  -0.008486
     2  C   -0.008487   0.001749   0.002434  -0.001254  -0.003432   0.004017
     3  C    0.006535   0.002434  -0.035576   0.017015   0.007598  -0.003431
     4  N   -0.000348  -0.001254   0.017015   0.688951   0.017012  -0.001255
     5  C    0.006535  -0.003432   0.007598   0.017012  -0.035570   0.002433
     6  C   -0.008486   0.004017  -0.003431  -0.001255   0.002433   0.001748
     7  C   -0.005698   0.001731  -0.003828  -0.019245  -0.014866   0.005662
     8  C    0.002111  -0.000615   0.000676  -0.019670  -0.001245   0.000670
     9  O   -0.000119  -0.000066  -0.003189  -0.178115  -0.003188  -0.000066
    10  C   -0.005697   0.005664  -0.014865  -0.019238  -0.003829   0.001730
    11  C    0.002112   0.000667  -0.001244  -0.019677   0.000677  -0.000615
    12  H    0.000887  -0.000428   0.000118  -0.000026   0.000118  -0.000428
    13  H   -0.001835   0.000958  -0.000763  -0.000210  -0.000763   0.000958
    14  H   -0.000080   0.000510  -0.000138  -0.000005  -0.000001   0.000011
    15  H   -0.001578   0.000619  -0.000533   0.001648  -0.000224   0.000565
    16  H   -0.001578   0.000565  -0.000223   0.001648  -0.000532   0.000619
    17  H   -0.000080   0.000011  -0.000001  -0.000005  -0.000138   0.000510
    18  H   -0.000234   0.000090  -0.000457  -0.004693   0.000559  -0.000016
    19  H    0.000295  -0.000058   0.000137   0.000530   0.002394  -0.000639
    20  H    0.000369  -0.000120   0.000231   0.000947   0.000914  -0.000229
    21  H   -0.000193   0.000084  -0.000027   0.003441   0.001736  -0.000044
    22  H   -0.000026   0.000016  -0.000026   0.000041   0.001922  -0.000093
    23  H   -0.000002   0.000009  -0.000076   0.000222   0.000655  -0.000215
    24  H    0.000295  -0.000638   0.002394   0.000530   0.000137  -0.000058
    25  H   -0.000234  -0.000015   0.000558  -0.004698  -0.000458   0.000090
    26  H    0.000369  -0.000229   0.000914   0.000945   0.000230  -0.000120
    27  H   -0.000193  -0.000044   0.001736   0.003442  -0.000028   0.000084
    28  H   -0.000002  -0.000215   0.000655   0.000223  -0.000076   0.000009
    29  H   -0.000026  -0.000093   0.001922   0.000041  -0.000026   0.000016
               7          8          9         10         11         12
     1  C   -0.005698   0.002111  -0.000119  -0.005697   0.002112   0.000887
     2  C    0.001731  -0.000615  -0.000066   0.005664   0.000667  -0.000428
     3  C   -0.003828   0.000676  -0.003189  -0.014865  -0.001244   0.000118
     4  N   -0.019245  -0.019670  -0.178115  -0.019238  -0.019677  -0.000026
     5  C   -0.014866  -0.001245  -0.003188  -0.003829   0.000677   0.000118
     6  C    0.005662   0.000670  -0.000066   0.001730  -0.000615  -0.000428
     7  C    0.076833  -0.021781   0.005883   0.003676  -0.000608  -0.000052
     8  C   -0.021781   0.054793   0.004447  -0.000607   0.000639   0.000018
     9  O    0.005883   0.004447   0.663532   0.005882   0.004451   0.000000
    10  C    0.003676  -0.000607   0.005882   0.076814  -0.021779  -0.000052
    11  C   -0.000608   0.000639   0.004451  -0.021779   0.054802   0.000018
    12  H   -0.000052   0.000018   0.000000  -0.000052   0.000018   0.000404
    13  H    0.000812  -0.000101   0.000021   0.000811  -0.000101  -0.000133
    14  H    0.000014  -0.000005   0.000004   0.000450  -0.000280  -0.000007
    15  H    0.000120  -0.000171  -0.000079   0.000852  -0.001967  -0.000079
    16  H    0.000852  -0.001967  -0.000079   0.000120  -0.000171  -0.000079
    17  H    0.000451  -0.000280   0.000004   0.000014  -0.000005  -0.000007
    18  H    0.004115  -0.002103   0.002675   0.000553  -0.000086  -0.000002
    19  H   -0.004653   0.002628  -0.000230  -0.000101   0.000010   0.000002
    20  H   -0.001536   0.000274  -0.000181  -0.000348   0.000033   0.000006
    21  H    0.001049  -0.007385  -0.001435   0.000045  -0.000157  -0.000002
    22  H    0.000953  -0.002499  -0.000063   0.000005  -0.000005  -0.000000
    23  H    0.000418  -0.000066  -0.001085  -0.000000   0.000004  -0.000000
    24  H   -0.000101   0.000010  -0.000230  -0.004651   0.002628   0.000002
    25  H    0.000554  -0.000087   0.002679   0.004116  -0.002105  -0.000002
    26  H   -0.000348   0.000033  -0.000181  -0.001534   0.000274   0.000006
    27  H    0.000045  -0.000157  -0.001436   0.001049  -0.007386  -0.000002
    28  H   -0.000000   0.000004  -0.001085   0.000419  -0.000068  -0.000000
    29  H    0.000005  -0.000005  -0.000063   0.000952  -0.002498  -0.000000
              13         14         15         16         17         18
     1  C   -0.001835  -0.000080  -0.001578  -0.001578  -0.000080  -0.000234
     2  C    0.000958   0.000510   0.000619   0.000565   0.000011   0.000090
     3  C   -0.000763  -0.000138  -0.000533  -0.000223  -0.000001  -0.000457
     4  N   -0.000210  -0.000005   0.001648   0.001648  -0.000005  -0.004693
     5  C   -0.000763  -0.000001  -0.000224  -0.000532  -0.000138   0.000559
     6  C    0.000958   0.000011   0.000565   0.000619   0.000510  -0.000016
     7  C    0.000812   0.000014   0.000120   0.000852   0.000451   0.004115
     8  C   -0.000101  -0.000005  -0.000171  -0.001967  -0.000280  -0.002103
     9  O    0.000021   0.000004  -0.000079  -0.000079   0.000004   0.002675
    10  C    0.000811   0.000450   0.000852   0.000120   0.000014   0.000553
    11  C   -0.000101  -0.000280  -0.001967  -0.000171  -0.000005  -0.000086
    12  H   -0.000133  -0.000007  -0.000079  -0.000079  -0.000007  -0.000002
    13  H    0.000628   0.000019   0.000072   0.000072   0.000019   0.000049
    14  H    0.000019  -0.001355   0.000208   0.000009   0.000001   0.000000
    15  H    0.000072   0.000208   0.000353   0.000213   0.000009   0.000006
    16  H    0.000072   0.000009   0.000213   0.000353   0.000208   0.000040
    17  H    0.000019   0.000001   0.000009   0.000208  -0.001355   0.000027
    18  H    0.000049   0.000000   0.000006   0.000040   0.000027  -0.000593
    19  H   -0.000062  -0.000000  -0.000003  -0.000068  -0.000126  -0.002094
    20  H   -0.000091  -0.000003  -0.000006  -0.000019  -0.000027  -0.000370
    21  H    0.000006   0.000000   0.000042   0.000358   0.000035   0.000143
    22  H    0.000002  -0.000000   0.000002   0.000128  -0.000068   0.000132
    23  H    0.000000  -0.000000   0.000000   0.000011   0.000017  -0.000167
    24  H   -0.000062  -0.000126  -0.000068  -0.000003  -0.000000  -0.000031
    25  H    0.000049   0.000027   0.000040   0.000006   0.000000   0.000275
    26  H   -0.000091  -0.000027  -0.000019  -0.000006  -0.000003  -0.000082
    27  H    0.000006   0.000035   0.000358   0.000042   0.000000   0.000007
    28  H    0.000000   0.000017   0.000011   0.000000  -0.000000   0.000002
    29  H    0.000002  -0.000068   0.000128   0.000002  -0.000000   0.000001
              19         20         21         22         23         24
     1  C    0.000295   0.000369  -0.000193  -0.000026  -0.000002   0.000295
     2  C   -0.000058  -0.000120   0.000084   0.000016   0.000009  -0.000638
     3  C    0.000137   0.000231  -0.000027  -0.000026  -0.000076   0.002394
     4  N    0.000530   0.000947   0.003441   0.000041   0.000222   0.000530
     5  C    0.002394   0.000914   0.001736   0.001922   0.000655   0.000137
     6  C   -0.000639  -0.000229  -0.000044  -0.000093  -0.000215  -0.000058
     7  C   -0.004653  -0.001536   0.001049   0.000953   0.000418  -0.000101
     8  C    0.002628   0.000274  -0.007385  -0.002499  -0.000066   0.000010
     9  O   -0.000230  -0.000181  -0.001435  -0.000063  -0.001085  -0.000230
    10  C   -0.000101  -0.000348   0.000045   0.000005  -0.000000  -0.004651
    11  C    0.000010   0.000033  -0.000157  -0.000005   0.000004   0.002628
    12  H    0.000002   0.000006  -0.000002  -0.000000  -0.000000   0.000002
    13  H   -0.000062  -0.000091   0.000006   0.000002   0.000000  -0.000062
    14  H   -0.000000  -0.000003   0.000000  -0.000000  -0.000000  -0.000126
    15  H   -0.000003  -0.000006   0.000042   0.000002   0.000000  -0.000068
    16  H   -0.000068  -0.000019   0.000358   0.000128   0.000011  -0.000003
    17  H   -0.000126  -0.000027   0.000035  -0.000068   0.000017  -0.000000
    18  H   -0.002094  -0.000370   0.000143   0.000132  -0.000167  -0.000031
    19  H    0.003954   0.000512  -0.000093  -0.000204  -0.000035   0.000002
    20  H    0.000512  -0.001272  -0.000012  -0.000015  -0.000001   0.000026
    21  H   -0.000093  -0.000012   0.001962   0.000593   0.000224  -0.000001
    22  H   -0.000204  -0.000015   0.000593  -0.002080   0.000122  -0.000000
    23  H   -0.000035  -0.000001   0.000224   0.000122  -0.001280  -0.000000
    24  H    0.000002   0.000026  -0.000001  -0.000000  -0.000000   0.003953
    25  H   -0.000031  -0.000082   0.000007   0.000001   0.000002  -0.002096
    26  H    0.000026   0.000074  -0.000002  -0.000001   0.000000   0.000511
    27  H   -0.000001  -0.000002   0.000051   0.000001   0.000001  -0.000093
    28  H   -0.000000   0.000000   0.000001   0.000000   0.000002  -0.000036
    29  H   -0.000000  -0.000001   0.000001  -0.000000   0.000000  -0.000203
              25         26         27         28         29
     1  C   -0.000234   0.000369  -0.000193  -0.000002  -0.000026
     2  C   -0.000015  -0.000229  -0.000044  -0.000215  -0.000093
     3  C    0.000558   0.000914   0.001736   0.000655   0.001922
     4  N   -0.004698   0.000945   0.003442   0.000223   0.000041
     5  C   -0.000458   0.000230  -0.000028  -0.000076  -0.000026
     6  C    0.000090  -0.000120   0.000084   0.000009   0.000016
     7  C    0.000554  -0.000348   0.000045  -0.000000   0.000005
     8  C   -0.000087   0.000033  -0.000157   0.000004  -0.000005
     9  O    0.002679  -0.000181  -0.001436  -0.001085  -0.000063
    10  C    0.004116  -0.001534   0.001049   0.000419   0.000952
    11  C   -0.002105   0.000274  -0.007386  -0.000068  -0.002498
    12  H   -0.000002   0.000006  -0.000002  -0.000000  -0.000000
    13  H    0.000049  -0.000091   0.000006   0.000000   0.000002
    14  H    0.000027  -0.000027   0.000035   0.000017  -0.000068
    15  H    0.000040  -0.000019   0.000358   0.000011   0.000128
    16  H    0.000006  -0.000006   0.000042   0.000000   0.000002
    17  H    0.000000  -0.000003   0.000000  -0.000000  -0.000000
    18  H    0.000275  -0.000082   0.000007   0.000002   0.000001
    19  H   -0.000031   0.000026  -0.000001  -0.000000  -0.000000
    20  H   -0.000082   0.000074  -0.000002   0.000000  -0.000001
    21  H    0.000007  -0.000002   0.000051   0.000001   0.000001
    22  H    0.000001  -0.000001   0.000001   0.000000  -0.000000
    23  H    0.000002   0.000000   0.000001   0.000002   0.000000
    24  H   -0.002096   0.000511  -0.000093  -0.000036  -0.000203
    25  H   -0.000588  -0.000370   0.000143  -0.000167   0.000132
    26  H   -0.000370  -0.001272  -0.000012  -0.000001  -0.000015
    27  H    0.000143  -0.000012   0.001961   0.000225   0.000593
    28  H   -0.000167  -0.000001   0.000225  -0.001279   0.000122
    29  H    0.000132  -0.000015   0.000593   0.000122  -0.002081
 Mulliken charges and spin densities:
               1          2
     1  C   -0.167525  -0.000764
     2  C   -0.150174   0.003429
     3  C   -0.137335  -0.021454
     4  N   -0.061867   0.468198
     5  C   -0.137328  -0.021454
     6  C   -0.150186   0.003429
     7  C   -0.259512   0.030458
     8  C   -0.238390   0.007560
     9  O   -0.352029   0.498690
    10  C   -0.259503   0.030454
    11  C   -0.238401   0.007563
    12  H    0.118583   0.000280
    13  H    0.108821   0.000271
    14  H    0.117342  -0.000787
    15  H    0.103276   0.000519
    16  H    0.103277   0.000519
    17  H    0.117341  -0.000787
    18  H    0.123640  -0.002252
    19  H    0.125212   0.002089
    20  H    0.128912  -0.000928
    21  H    0.117305   0.000428
    22  H    0.121675  -0.001162
    23  H    0.125061  -0.001238
    24  H    0.125209   0.002089
    25  H    0.123641  -0.002250
    26  H    0.128919  -0.000929
    27  H    0.117297   0.000427
    28  H    0.125066  -0.001238
    29  H    0.121673  -0.001162
 Sum of Mulliken charges =  -0.00000   1.00000
 Mulliken charges and spin densities with hydrogens summed into heavy atoms:
               1          2
     1  C    0.059879  -0.000213
     2  C    0.070444   0.003162
     3  C   -0.137335  -0.021454
     4  N   -0.061867   0.468198
     5  C   -0.137328  -0.021454
     6  C    0.070433   0.003162
     7  C    0.118252   0.029367
     8  C    0.125651   0.005589
     9  O   -0.352029   0.498690
    10  C    0.118266   0.029364
    11  C    0.125634   0.005591
 APT charges:
               1
     1  C    0.074199
     2  C    0.071810
     3  C    0.392034
     4  N   -0.121465
     5  C    0.392043
     6  C    0.071814
     7  C   -0.065986
     8  C   -0.015171
     9  O   -0.606141
    10  C   -0.065982
    11  C   -0.015148
    12  H   -0.038349
    13  H   -0.025704
    14  H   -0.026301
    15  H   -0.039353
    16  H   -0.039359
    17  H   -0.026294
    18  H    0.018717
    19  H    0.001544
    20  H    0.005499
    21  H   -0.008088
    22  H    0.001564
    23  H    0.022445
    24  H    0.001544
    25  H    0.018741
    26  H    0.005487
    27  H   -0.008091
    28  H    0.022444
    29  H    0.001550
 Sum of APT charges =  -0.00000
 APT charges with hydrogens summed into heavy atoms:
               1
     1  C    0.010146
     2  C    0.006156
     3  C    0.392034
     4  N   -0.121465
     5  C    0.392043
     6  C    0.006160
     7  C   -0.040227
     8  C    0.000750
     9  O   -0.606141
    10  C   -0.040210
    11  C    0.000754
 Electronic spatial extent (au):  <R**2>=           1671.8348
 Charge=             -0.0000 electrons
 Dipole moment (field-independent basis, Debye):
    X=              0.0005    Y=              4.0373    Z=              0.2812  Tot=              4.0470
 Quadrupole moment (field-independent basis, Debye-Ang):
   XX=            -64.9461   YY=            -76.1419   ZZ=            -68.6025
   XY=             -0.0007   XZ=             -0.0002   YZ=             -0.6098
 Traceless Quadrupole moment (field-independent basis, Debye-Ang):
   XX=              4.9507   YY=             -6.2451   ZZ=              1.2944
   XY=             -0.0007   XZ=             -0.0002   YZ=             -0.6098
 Octapole moment (field-independent basis, Debye-Ang**2):
  XXX=              0.0019  YYY=             12.2251  ZZZ=             -2.6382  XYY=              0.0012
  XXY=             -0.1756  XXZ=              1.6631  XZZ=              0.0007  YZZ=             -1.7699
  YYZ=              1.0330  XYZ=              0.0003
 Hexadecapole moment (field-independent basis, Debye-Ang**3):
 XXXX=          -1099.0583 YYYY=           -709.7534 ZZZZ=           -423.2974 XXXY=              0.0029
 XXXZ=              0.0006 YYYX=             -0.0013 YYYZ=             -6.4857 ZZZX=             -0.0023
 ZZZY=              2.1772 XXYY=           -300.6871 XXZZ=           -264.7798 YYZZ=           -183.4646
 XXYZ=              0.3402 YYXZ=              0.0004 ZZXY=             -0.0001
 N-N= 7.179180489884D+02 E-N=-2.556952856997D+03  KE= 4.783993696452D+02
  Exact polarizability: 134.738   0.001 133.166   0.000  -0.273 120.741
 Approx polarizability: 106.847   0.001 113.484  -0.000  -0.245 102.397
                          Isotropic Fermi Contact Couplings
        Atom                 a.u.       MegaHertz       Gauss      10(-4) cm-1
     1  C(13)             -0.00084      -0.94391      -0.33681      -0.31486
     2  C(13)              0.00252       2.82890       1.00942       0.94362
     3  C(13)             -0.01338     -15.04341      -5.36786      -5.01794
     4  N(14)              0.20845      67.35121      24.03259      22.46594
     5  C(13)             -0.01338     -15.04293      -5.36769      -5.01778
     6  C(13)              0.00252       2.82955       1.00965       0.94383
     7  C(13)              0.02122      23.85693       8.51275       7.95782
     8  C(13)              0.00932      10.47329       3.73713       3.49351
     9  O(17)              0.19704    -119.44301     -42.62024     -39.84190
    10  C(13)              0.02121      23.84421       8.50821       7.95357
    11  C(13)              0.00932      10.47406       3.73740       3.49377
    12  H(1)               0.00014       0.60753       0.21678       0.20265
    13  H(1)               0.00004       0.18570       0.06626       0.06194
    14  H(1)              -0.00029      -1.31064      -0.46767      -0.43718
    15  H(1)              -0.00009      -0.38040      -0.13574      -0.12689
    16  H(1)              -0.00009      -0.38055      -0.13579      -0.12694
    17  H(1)              -0.00029      -1.31067      -0.46768      -0.43719
    18  H(1)              -0.00064      -2.86141      -1.02102      -0.95446
    19  H(1)               0.00079       3.52012       1.25607       1.17419
    20  H(1)              -0.00037      -1.66874      -0.59545      -0.55663
    21  H(1)              -0.00022      -0.96331      -0.34373      -0.32133
    22  H(1)              -0.00041      -1.83441      -0.65456      -0.61189
    23  H(1)              -0.00021      -0.92245      -0.32915      -0.30770
    24  H(1)               0.00079       3.51892       1.25564       1.17379
    25  H(1)              -0.00064      -2.86167      -1.02111      -0.95455
    26  H(1)              -0.00037      -1.66874      -0.59545      -0.55663
    27  H(1)              -0.00022      -0.96403      -0.34399      -0.32157
    28  H(1)              -0.00021      -0.92194      -0.32897      -0.30753
    29  H(1)              -0.00041      -1.83488      -0.65473      -0.61205
 --------------------------------------------------------
       Center         ----  Spin Dipole Couplings  ----
                      3XX-RR        3YY-RR        3ZZ-RR
 --------------------------------------------------------
     1   Atom       -0.004227      0.007707     -0.003480
     2   Atom       -0.002709      0.008483     -0.005774
     3   Atom        0.011570     -0.002139     -0.009431
     4   Atom       -0.620886     -0.610132      1.231018
     5   Atom        0.011578     -0.002145     -0.009434
     6   Atom       -0.002708      0.008482     -0.005774
     7   Atom       -0.009358     -0.018054      0.027412
     8   Atom        0.016386     -0.006716     -0.009669
     9   Atom       -1.013575     -1.064593      2.078169
    10   Atom       -0.009361     -0.018049      0.027409
    11   Atom        0.016388     -0.006717     -0.009671
    12   Atom       -0.001776      0.003440     -0.001664
    13   Atom       -0.002844      0.004758     -0.001914
    14   Atom       -0.000040      0.002459     -0.002419
    15   Atom       -0.002056      0.003997     -0.001941
    16   Atom       -0.002055      0.003996     -0.001941
    17   Atom       -0.000039      0.002458     -0.002419
    18   Atom        0.000464     -0.003511      0.003047
    19   Atom        0.004348     -0.002964     -0.001384
    20   Atom       -0.002876     -0.001628      0.004504
    21   Atom        0.004928     -0.005876      0.000948
    22   Atom        0.005497     -0.002467     -0.003031
    23   Atom        0.011878     -0.005068     -0.006810
    24   Atom        0.004349     -0.002965     -0.001384
    25   Atom        0.000461     -0.003513      0.003052
    26   Atom       -0.002876     -0.001625      0.004501
    27   Atom        0.004928     -0.005878      0.000950
    28   Atom        0.011880     -0.005069     -0.006811
    29   Atom        0.005497     -0.002466     -0.003031
 --------------------------------------------------------
                        XY            XZ            YZ
 --------------------------------------------------------
     1   Atom        0.000000      0.000000      0.000693
     2   Atom       -0.006553      0.000482      0.000178
     3   Atom       -0.014563     -0.009460      0.004475
     4   Atom        0.000001      0.000045     -0.003114
     5   Atom        0.014562      0.009459      0.004474
     6   Atom        0.006554     -0.000482      0.000179
     7   Atom       -0.000805      0.024571     -0.007784
     8   Atom       -0.004541     -0.009200      0.002496
     9   Atom       -0.000003      0.000074      0.184039
    10   Atom        0.000805     -0.024565     -0.007785
    11   Atom        0.004541      0.009204      0.002497
    12   Atom        0.000000      0.000000     -0.000181
    13   Atom        0.000000      0.000000      0.002908
    14   Atom       -0.003766     -0.000009     -0.000064
    15   Atom       -0.004700      0.002225     -0.004582
    16   Atom        0.004700     -0.002226     -0.004582
    17   Atom        0.003766      0.000009     -0.000064
    18   Atom        0.002254      0.010378      0.000497
    19   Atom        0.003865      0.003207      0.000861
    20   Atom        0.001438      0.002534      0.006384
    21   Atom        0.001281     -0.008666     -0.000989
    22   Atom        0.002298     -0.001479     -0.000208
    23   Atom       -0.002745     -0.002522     -0.000007
    24   Atom       -0.003863     -0.003207      0.000861
    25   Atom       -0.002256     -0.010380      0.000500
    26   Atom       -0.001438     -0.002534      0.006383
    27   Atom       -0.001282      0.008670     -0.000990
    28   Atom        0.002743      0.002522     -0.000007
    29   Atom       -0.002300      0.001480     -0.000208
 --------------------------------------------------------


 ---------------------------------------------------------------------------------
              Anisotropic Spin Dipole Couplings in Principal Axis System
 ---------------------------------------------------------------------------------

       Atom             a.u.   MegaHertz   Gauss  10(-4) cm-1        Axes

              Baa    -0.0042    -0.567    -0.202    -0.189  1.0000 -0.0000 -0.0001
     1 C(13)  Bbb    -0.0035    -0.473    -0.169    -0.158  0.0001 -0.0616  0.9981
              Bcc     0.0077     1.040     0.371     0.347  0.0000  0.9981  0.0616
 
              Baa    -0.0063    -0.841    -0.300    -0.280 -0.6290 -0.2882  0.7221
     2 C(13)  Bbb    -0.0052    -0.703    -0.251    -0.235  0.6551  0.3038  0.6918
              Bcc     0.0115     1.544     0.551     0.515 -0.4187  0.9081 -0.0023
 
              Baa    -0.0134    -1.799    -0.642    -0.600  0.4883  0.3067  0.8170
     3 C(13)  Bbb    -0.0106    -1.427    -0.509    -0.476  0.3195  0.8083 -0.4944
              Bcc     0.0240     3.226     1.151     1.076  0.8121 -0.5025 -0.2967
 
              Baa    -0.6209   -23.946    -8.545    -7.988  1.0000 -0.0001 -0.0000
     4 N(14)  Bbb    -0.6101   -23.532    -8.397    -7.849  0.0001  1.0000  0.0017
              Bcc     1.2310    47.478    16.941    15.837  0.0000 -0.0017  1.0000
 
              Baa    -0.0134    -1.799    -0.642    -0.600 -0.4881  0.3065  0.8172
     5 C(13)  Bbb    -0.0106    -1.427    -0.509    -0.476 -0.3196  0.8085 -0.4941
              Bcc     0.0240     3.226     1.151     1.076  0.8122  0.5024  0.2966
 
              Baa    -0.0063    -0.841    -0.300    -0.280  0.6291 -0.2883  0.7219
     6 C(13)  Bbb    -0.0052    -0.703    -0.251    -0.235 -0.6549  0.3038  0.6920
              Bcc     0.0115     1.544     0.551     0.515  0.4188  0.9081 -0.0023
 
              Baa    -0.0234    -3.136    -1.119    -1.046  0.7317 -0.5252 -0.4345
     7 C(13)  Bbb    -0.0173    -2.316    -0.826    -0.772  0.5212  0.8419 -0.1400
              Bcc     0.0406     5.452     1.945     1.819  0.4393 -0.1240  0.8897
 
              Baa    -0.0128    -1.715    -0.612    -0.572  0.2688 -0.1876  0.9448
     8 C(13)  Bbb    -0.0075    -1.004    -0.358    -0.335  0.2319  0.9646  0.1255
              Bcc     0.0203     2.720     0.970     0.907  0.9349 -0.1854 -0.3028
 
              Baa    -1.0753    77.810    27.765    25.955  0.0001  0.9983 -0.0583
     9 O(17)  Bbb    -1.0136    73.342    26.170    24.464  1.0000 -0.0001 -0.0000
              Bcc     2.0889  -151.152   -53.935   -50.419  0.0000  0.0583  0.9983
 
              Baa    -0.0234    -3.136    -1.119    -1.046  0.7318  0.5251  0.4345
    10 C(13)  Bbb    -0.0173    -2.315    -0.826    -0.772 -0.5211  0.8420 -0.1399
              Bcc     0.0406     5.451     1.945     1.818 -0.4393 -0.1241  0.8897
 
              Baa    -0.0128    -1.716    -0.612    -0.572 -0.2689 -0.1875  0.9448
    11 C(13)  Bbb    -0.0075    -1.004    -0.358    -0.335 -0.2319  0.9646  0.1255
              Bcc     0.0203     2.720     0.971     0.907  0.9349  0.1853  0.3028
 
              Baa    -0.0018    -0.948    -0.338    -0.316  1.0000 -0.0000 -0.0001
    12 H(1)   Bbb    -0.0017    -0.891    -0.318    -0.297  0.0001  0.0355  0.9994
              Bcc     0.0034     1.839     0.656     0.613  0.0000  0.9994 -0.0355
 
              Baa    -0.0030    -1.603    -0.572    -0.535 -0.0003 -0.3508  0.9364
    13 H(1)   Bbb    -0.0028    -1.517    -0.541    -0.506  1.0000 -0.0001  0.0002
              Bcc     0.0058     3.120     1.113     1.041  0.0000  0.9364  0.3508
 
              Baa    -0.0028    -1.475    -0.526    -0.492  0.8035  0.5810  0.1296
    14 H(1)   Bbb    -0.0024    -1.288    -0.459    -0.430 -0.1086 -0.0709  0.9916
              Bcc     0.0052     2.763     0.986     0.922 -0.5853  0.8108 -0.0061
 
              Baa    -0.0047    -2.526    -0.901    -0.843  0.6854  0.5917  0.4244
    15 H(1)   Bbb    -0.0042    -2.244    -0.801    -0.748 -0.5897  0.1091  0.8002
              Bcc     0.0089     4.770     1.702     1.591 -0.4271  0.7988 -0.4237
 
              Baa    -0.0047    -2.526    -0.901    -0.843  0.6854 -0.5917 -0.4244
    16 H(1)   Bbb    -0.0042    -2.244    -0.801    -0.748  0.5897  0.1091  0.8002
              Bcc     0.0089     4.770     1.702     1.591  0.4272  0.7987 -0.4237
 
              Baa    -0.0028    -1.475    -0.526    -0.492  0.8035 -0.5811 -0.1296
    17 H(1)   Bbb    -0.0024    -1.288    -0.459    -0.430  0.1087 -0.0709  0.9915
              Bcc     0.0052     2.763     0.986     0.922  0.5853  0.8108 -0.0062
 
              Baa    -0.0090    -4.827    -1.722    -1.610  0.7407 -0.2453 -0.6255
    18 H(1)   Bbb    -0.0034    -1.806    -0.645    -0.603  0.1084  0.9624 -0.2492
              Bcc     0.0124     6.633     2.367     2.213  0.6631  0.1168  0.7394
 
              Baa    -0.0047    -2.521    -0.900    -0.841 -0.4429  0.8740  0.1999
    19 H(1)   Bbb    -0.0025    -1.355    -0.483    -0.452 -0.2398 -0.3303  0.9129
              Bcc     0.0073     3.876     1.383     1.293  0.8639  0.3564  0.3559
 
              Baa    -0.0057    -3.016    -1.076    -1.006  0.0603  0.8382 -0.5420
    20 H(1)   Bbb    -0.0036    -1.904    -0.679    -0.635  0.9704 -0.1765 -0.1650
              Bcc     0.0092     4.919     1.755     1.641  0.2340  0.5160  0.8240
 
              Baa    -0.0060    -3.217    -1.148    -1.073 -0.2533  0.9505 -0.1798
    21 H(1)   Bbb    -0.0059    -3.172    -1.132    -1.058  0.5734  0.2972  0.7634
              Bcc     0.0120     6.390     2.280     2.131  0.7791  0.0903 -0.6203
 
              Baa    -0.0034    -1.801    -0.643    -0.601  0.2624 -0.4712  0.8421
    22 H(1)   Bbb    -0.0030    -1.586    -0.566    -0.529 -0.1392  0.8450  0.5163
              Bcc     0.0063     3.387     1.208     1.130  0.9549  0.2527 -0.1562
 
              Baa    -0.0072    -3.853    -1.375    -1.285  0.1568  0.2028  0.9666
    23 H(1)   Bbb    -0.0054    -2.887    -1.030    -0.963  0.1211  0.9673 -0.2226
              Bcc     0.0126     6.739     2.405     2.248  0.9802 -0.1520 -0.1271
 
              Baa    -0.0047    -2.521    -0.900    -0.841  0.4427  0.8742  0.1996
    24 H(1)   Bbb    -0.0025    -1.355    -0.483    -0.452  0.2400 -0.3300  0.9130
              Bcc     0.0073     3.875     1.383     1.293  0.8639 -0.3563 -0.3559
 
              Baa    -0.0090    -4.828    -1.723    -1.610  0.7408  0.2454  0.6253
    25 H(1)   Bbb    -0.0034    -1.808    -0.645    -0.603 -0.1084  0.9623 -0.2494
              Bcc     0.0124     6.636     2.368     2.213 -0.6630  0.1169  0.7395
 
              Baa    -0.0057    -3.015    -1.076    -1.006 -0.0608  0.8381 -0.5422
    26 H(1)   Bbb    -0.0036    -1.904    -0.679    -0.635  0.9703  0.1769  0.1647
              Bcc     0.0092     4.918     1.755     1.641 -0.2340  0.5161  0.8240
 
              Baa    -0.0060    -3.219    -1.148    -1.074  0.2540  0.9502 -0.1807
    27 H(1)   Bbb    -0.0059    -3.174    -1.132    -1.059 -0.5732  0.2984  0.7632
              Bcc     0.0120     6.392     2.281     2.132  0.7791 -0.0903  0.6204
 
              Baa    -0.0072    -3.853    -1.375    -1.285 -0.1568  0.2030  0.9666
    28 H(1)   Bbb    -0.0054    -2.887    -1.030    -0.963 -0.1210  0.9673 -0.2228
              Bcc     0.0126     6.740     2.405     2.248  0.9802  0.1518  0.1271
 
              Baa    -0.0034    -1.801    -0.643    -0.601 -0.2625 -0.4706  0.8424
    29 H(1)   Bbb    -0.0030    -1.586    -0.566    -0.529  0.1394  0.8454  0.5157
              Bcc     0.0063     3.387     1.209     1.130  0.9548 -0.2528  0.1563
 

 ---------------------------------------------------------------------------------

 No NMR shielding tensors so no spin-rotation constants.
 Leave Link  601 at Wed Feb 28 21:00:08 2024, MaxMem=  2147483648 cpu:               5.8 elap:               0.2
 (Enter /software/gaussian-16RevA.03-el7-x86_64/g16/l701.exe)
 ... and contract with generalized density number  0.
 Compute integral second derivatives.
 R6Disp: Adding Grimme-D2 dispersion energy 2nd derivatives to the Hessian.
   1 Symmetry operations used in ECPInt.
 ECPInt:  NShTT=    5253 NPrTT=   21107 LenC2=    5228 LenP2D=   16402.
 LDataN:  DoStor=T MaxTD1= 6 Len=  172
 D2PCM: PCM CHGder 2nd derivatives, FixD1E=F FixD2E=F DoIter=F DoCFld=F I1PDM=0
 GePol: Maximum number of non-zero 2nd derivatives   =     165
 Leave Link  701 at Wed Feb 28 21:00:10 2024, MaxMem=  2147483648 cpu:              72.7 elap:               2.6
 (Enter /software/gaussian-16RevA.03-el7-x86_64/g16/l702.exe)
 L702 exits ... SP integral derivatives will be done elsewhere.
 Leave Link  702 at Wed Feb 28 21:00:10 2024, MaxMem=  2147483648 cpu:               0.4 elap:               0.0
 (Enter /software/gaussian-16RevA.03-el7-x86_64/g16/l703.exe)
 Integral derivatives from FoFJK, PRISM(SPDF).
 Compute integral second derivatives, UseDBF=F ICtDFT=           0.
 Calling FoFJK, ICntrl=    100127 FMM=F ISym2X=0 I1Cent= 0 IOpClX= 1 NMat=1 NMatS=1 NMatT=0.
 FoFJK:  IHMeth= 1 ICntrl=  100127 DoSepK=T KAlg= 0 I1Cent=           0 FoldK=F
 IRaf=         1 NMat=       1 IRICut=       1 DoRegI=T DoRafI=F ISym2E= 0 IDoP0=0 IntGTp=1.
 FoFCou: FMM=F IPFlag=           0 FMFlag=      100000 FMFlg1=         800
         NFxFlg=           0 DoJE=F BraDBF=F KetDBF=F FulRan=T
         wScrn=  0.000000 ICntrl=    100527 IOpCl=  0 I1Cent=           0 NGrid=           0
         NMat0=    1 NMatS0=      1 NMatT0=    0 NMatD0=    1 NMtDS0=    0 NMtDT0=    0
 Symmetry not used in FoFCou.
 Leave Link  703 at Wed Feb 28 21:00:46 2024, MaxMem=  2147483648 cpu:            1004.8 elap:              36.0
 (Enter /software/gaussian-16RevA.03-el7-x86_64/g16/l716.exe)
 Dipole        = 2.14635209D-04 1.58837706D+00 1.10616304D-01
 Polarizability= 1.34737575D+02 1.07007765D-03 1.33165511D+02
                 9.06506707D-06-2.73153083D-01 1.20741198D+02
 -------------------------------------------------------------------
 Center     Atomic                   Forces (Hartrees/Bohr)
 Number     Number              X              Y              Z
 -------------------------------------------------------------------
      1        6           0.000004957   -0.005201908   -0.002680727
      2        6           0.003663558   -0.001679098    0.002742813
      3        6           0.002056902   -0.000239523   -0.000730352
      4        7          -0.000002416   -0.003374217    0.003333525
      5        6          -0.002050950   -0.000237741   -0.000700526
      6        6          -0.003674832   -0.001672011    0.002734504
      7        6          -0.001381395    0.000618359   -0.004585235
      8        6          -0.003316601    0.002593656    0.002663148
      9        8           0.000022074    0.003007069   -0.001587633
     10        6           0.001372168    0.000626216   -0.004573687
     11        6           0.003311782    0.002605161    0.002657903
     12        1           0.000000315    0.005168294   -0.002220665
     13        1          -0.000001670    0.000503092    0.005178761
     14        1          -0.004488361    0.002759246    0.001648519
     15        1           0.000173748    0.000197021   -0.005183782
     16        1          -0.000172921    0.000197986   -0.005181809
     17        1           0.004488495    0.002760034    0.001647900
     18        1          -0.000522379   -0.006104186    0.002139782
     19        1           0.005653311    0.001912942    0.000683365
     20        1          -0.003432813    0.003401376    0.003583797
     21        1          -0.001848584    0.000187803   -0.006437595
     22        1           0.005289213    0.002477768    0.000108765
     23        1           0.001297195   -0.006194011    0.002335883
     24        1          -0.005655679    0.001911374    0.000686650
     25        1           0.000522735   -0.006103901    0.002137889
     26        1           0.003433068    0.003402854    0.003586181
     27        1           0.001842914    0.000187101   -0.006435040
     28        1          -0.001297045   -0.006189586    0.002339737
     29        1          -0.005286789    0.002478833    0.000107931
 -------------------------------------------------------------------
 Cartesian Forces:  Max     0.006437595 RMS     0.003167509
 FormGI is forming the generalized inverse of G from B-inverse, IUseBI=4.
 Leave Link  716 at Wed Feb 28 21:00:47 2024, MaxMem=  2147483648 cpu:               7.0 elap:               0.3
 (Enter /software/gaussian-16RevA.03-el7-x86_64/g16/l103.exe)

 GradGradGradGradGradGradGradGradGradGradGradGradGradGradGradGradGradGrad
 Berny optimization.
 Red2BG is reusing G-inverse.
 Internal  Forces:  Max     0.006716565 RMS     0.002009497
 Step   1 in ReCalcFC=50 IGetFC= 4 recover analytic Hessian.
 Search for a local minimum.
 Step number   1 out of a maximum of  174
 All quantities printed in internal units (Hartrees-Bohrs-Radians)
 RMS Force = .20095D-02 SwitMx=.10000D-02 MixMth= 1
 Mixed Optimization -- RFO/linear search
 Second derivative matrix not updated -- analytic derivatives used.
 ITU=  0
     Eigenvalues ---    0.00222   0.00253   0.00356   0.00376   0.00493
     Eigenvalues ---    0.00642   0.00740   0.01428   0.02471   0.02632
     Eigenvalues ---    0.03893   0.03959   0.04017   0.04385   0.04485
     Eigenvalues ---    0.04533   0.04540   0.04619   0.04668   0.04675
     Eigenvalues ---    0.04770   0.04787   0.04908   0.05166   0.05780
     Eigenvalues ---    0.06129   0.06297   0.06866   0.07203   0.07303
     Eigenvalues ---    0.07706   0.08455   0.09022   0.10672   0.11456
     Eigenvalues ---    0.12303   0.12476   0.12742   0.12765   0.13454
     Eigenvalues ---    0.14397   0.14736   0.14835   0.15344   0.15506
     Eigenvalues ---    0.15767   0.15906   0.16177   0.17767   0.19013
     Eigenvalues ---    0.21893   0.22132   0.26148   0.26207   0.28606
     Eigenvalues ---    0.28841   0.29062   0.29724   0.30245   0.31848
     Eigenvalues ---    0.34528   0.34670   0.34863   0.35207   0.35372
     Eigenvalues ---    0.35419   0.35678   0.35789   0.35882   0.35895
     Eigenvalues ---    0.36048   0.36091   0.36109   0.36193   0.36361
     Eigenvalues ---    0.36365   0.36436   0.36910   0.36978   0.38031
     Eigenvalues ---    0.63549
 RFO step:  Lambda=-2.04911620D-03 EMin= 2.22177708D-03
 Linear search not attempted -- first point.
 Iteration  1 RMS(Cart)=  0.01165344 RMS(Int)=  0.00011174
 Iteration  2 RMS(Cart)=  0.00011836 RMS(Int)=  0.00004373
 Iteration  3 RMS(Cart)=  0.00000002 RMS(Int)=  0.00004373
 ITry= 1 IFail=0 DXMaxC= 4.28D-02 DCOld= 1.00D+10 DXMaxT= 3.00D-01 DXLimC= 3.00D+00 Rises=F
 Variable       Old X    -DE/DX   Delta X   Delta X   Delta X     New X
                                 (Linear)    (Quad)   (Total)
    R1        2.87730   0.00038   0.00000   0.00046   0.00043   2.87772
    R2        2.87731   0.00037   0.00000   0.00044   0.00041   2.87772
    R3        2.06786   0.00562   0.00000   0.01571   0.01571   2.08358
    R4        2.07109   0.00520   0.00000   0.01478   0.01478   2.08587
    R5        2.89909   0.00162   0.00000   0.00500   0.00499   2.90408
    R6        2.06966   0.00552   0.00000   0.01524   0.01524   2.08490
    R7        2.07375   0.00519   0.00000   0.01475   0.01475   2.08850
    R8        2.82120   0.00005   0.00000  -0.00297  -0.00293   2.81826
    R9        2.90108   0.00186   0.00000   0.00540   0.00540   2.90648
   R10        2.88880   0.00215   0.00000   0.00623   0.00623   2.89503
   R11        2.82120   0.00002   0.00000  -0.00298  -0.00294   2.81826
   R12        2.40089  -0.00316   0.00000  -0.00616  -0.00616   2.39474
   R13        2.89907   0.00163   0.00000   0.00502   0.00502   2.90408
   R14        2.90115   0.00185   0.00000   0.00533   0.00533   2.90648
   R15        2.88877   0.00215   0.00000   0.00626   0.00626   2.89503
   R16        2.07376   0.00518   0.00000   0.01474   0.01474   2.08850
   R17        2.06966   0.00552   0.00000   0.01524   0.01524   2.08490
   R18        2.06466   0.00649   0.00000   0.01790   0.01790   2.08255
   R19        2.06756   0.00601   0.00000   0.01664   0.01664   2.08419
   R20        2.06446   0.00602   0.00000   0.01674   0.01674   2.08121
   R21        2.06622   0.00669   0.00000   0.01826   0.01826   2.08448
   R22        2.06772   0.00583   0.00000   0.01633   0.01633   2.08405
   R23        2.06026   0.00672   0.00000   0.01803   0.01803   2.07829
   R24        2.06755   0.00601   0.00000   0.01664   0.01664   2.08419
   R25        2.06466   0.00649   0.00000   0.01790   0.01790   2.08255
   R26        2.06446   0.00602   0.00000   0.01675   0.01675   2.08121
   R27        2.06623   0.00669   0.00000   0.01825   0.01825   2.08448
   R28        2.06026   0.00671   0.00000   0.01803   0.01803   2.07829
   R29        2.06773   0.00583   0.00000   0.01632   0.01632   2.08405
    A1        1.90226  -0.00020   0.00000  -0.00027  -0.00027   1.90199
    A2        1.91812  -0.00002   0.00000  -0.00213  -0.00212   1.91600
    A3        1.93475   0.00011   0.00000   0.00219   0.00218   1.93693
    A4        1.91812  -0.00002   0.00000  -0.00213  -0.00212   1.91600
    A5        1.93471   0.00011   0.00000   0.00222   0.00221   1.93693
    A6        1.85563   0.00001   0.00000   0.00004   0.00004   1.85567
    A7        1.98098   0.00001   0.00000   0.00113   0.00112   1.98209
    A8        1.94086  -0.00014   0.00000  -0.00042  -0.00043   1.94043
    A9        1.89564  -0.00014   0.00000  -0.00253  -0.00251   1.89313
   A10        1.88264   0.00020   0.00000   0.00188   0.00189   1.88453
   A11        1.89652   0.00004   0.00000  -0.00011  -0.00011   1.89641
   A12        1.86319   0.00004   0.00000   0.00001   0.00000   1.86319
   A13        1.92184   0.00012   0.00000   0.00262   0.00265   1.92449
   A14        1.94495   0.00009   0.00000  -0.00056  -0.00057   1.94438
   A15        1.90944  -0.00035   0.00000  -0.00393  -0.00394   1.90550
   A16        1.90584  -0.00014   0.00000  -0.00176  -0.00176   1.90408
   A17        1.87387   0.00004   0.00000   0.00209   0.00207   1.87594
   A18        1.90647   0.00025   0.00000   0.00164   0.00165   1.90812
   A19        2.16599   0.00001   0.00000   0.00417   0.00400   2.16999
   A20        2.02094   0.00016   0.00000   0.00614   0.00577   2.02671
   A21        2.02108   0.00012   0.00000   0.00600   0.00563   2.02672
   A22        1.92184   0.00012   0.00000   0.00262   0.00264   1.92449
   A23        1.90583  -0.00014   0.00000  -0.00175  -0.00175   1.90408
   A24        1.87400   0.00003   0.00000   0.00197   0.00195   1.87595
   A25        1.94490   0.00009   0.00000  -0.00051  -0.00052   1.94438
   A26        1.90942  -0.00035   0.00000  -0.00391  -0.00392   1.90550
   A27        1.90642   0.00025   0.00000   0.00169   0.00170   1.90812
   A28        1.98098   0.00001   0.00000   0.00112   0.00110   1.98209
   A29        1.89563  -0.00014   0.00000  -0.00252  -0.00250   1.89313
   A30        1.94087  -0.00014   0.00000  -0.00042  -0.00043   1.94043
   A31        1.89651   0.00004   0.00000  -0.00010  -0.00010   1.89641
   A32        1.88264   0.00020   0.00000   0.00189   0.00190   1.88454
   A33        1.86320   0.00004   0.00000  -0.00000  -0.00001   1.86319
   A34        1.91370   0.00016   0.00000   0.00121   0.00121   1.91490
   A35        1.91476  -0.00001   0.00000   0.00160   0.00160   1.91636
   A36        1.96253   0.00002   0.00000  -0.00106  -0.00106   1.96148
   A37        1.89398   0.00000   0.00000   0.00053   0.00053   1.89451
   A38        1.89382  -0.00012   0.00000  -0.00153  -0.00153   1.89228
   A39        1.88362  -0.00006   0.00000  -0.00076  -0.00076   1.88286
   A40        1.93095  -0.00025   0.00000  -0.00127  -0.00127   1.92968
   A41        1.90710   0.00038   0.00000   0.00062   0.00062   1.90772
   A42        1.93653   0.00035   0.00000   0.00507   0.00507   1.94160
   A43        1.89512  -0.00022   0.00000  -0.00326  -0.00327   1.89186
   A44        1.89051   0.00019   0.00000   0.00368   0.00367   1.89418
   A45        1.90293  -0.00047   0.00000  -0.00508  -0.00508   1.89785
   A46        1.91472  -0.00000   0.00000   0.00164   0.00164   1.91636
   A47        1.91373   0.00015   0.00000   0.00118   0.00118   1.91490
   A48        1.96253   0.00002   0.00000  -0.00105  -0.00105   1.96148
   A49        1.89399   0.00000   0.00000   0.00052   0.00052   1.89450
   A50        1.88361  -0.00006   0.00000  -0.00075  -0.00075   1.88286
   A51        1.89383  -0.00012   0.00000  -0.00154  -0.00154   1.89229
   A52        1.93086  -0.00024   0.00000  -0.00118  -0.00118   1.92968
   A53        1.93658   0.00034   0.00000   0.00503   0.00502   1.94160
   A54        1.90714   0.00038   0.00000   0.00058   0.00058   1.90772
   A55        1.89048   0.00019   0.00000   0.00371   0.00370   1.89418
   A56        1.89514  -0.00022   0.00000  -0.00328  -0.00328   1.89186
   A57        1.90294  -0.00047   0.00000  -0.00509  -0.00509   1.89785
    D1        1.03268  -0.00003   0.00000  -0.00216  -0.00217   1.03051
    D2       -3.12398   0.00013   0.00000   0.00081   0.00079  -3.12319
    D3       -1.07870   0.00001   0.00000  -0.00097  -0.00098  -1.07968
    D4        3.13567  -0.00019   0.00000  -0.00624  -0.00624   3.12943
    D5       -1.02099  -0.00002   0.00000  -0.00327  -0.00327  -1.02427
    D6        1.02429  -0.00014   0.00000  -0.00505  -0.00505   1.01924
    D7       -1.10134  -0.00012   0.00000  -0.00618  -0.00618  -1.10751
    D8        1.02518   0.00005   0.00000  -0.00321  -0.00321   1.02197
    D9        3.07046  -0.00007   0.00000  -0.00498  -0.00499   3.06548
   D10       -1.03269   0.00004   0.00000   0.00215   0.00216  -1.03052
   D11        1.07869  -0.00001   0.00000   0.00097   0.00098   1.07966
   D12        3.12398  -0.00013   0.00000  -0.00082  -0.00080   3.12318
   D13       -3.13568   0.00019   0.00000   0.00623   0.00623  -3.12945
   D14       -1.02430   0.00014   0.00000   0.00505   0.00505  -1.01926
   D15        1.02099   0.00002   0.00000   0.00326   0.00327   1.02425
   D16        1.10135   0.00012   0.00000   0.00615   0.00615   1.10750
   D17       -3.07046   0.00007   0.00000   0.00497   0.00497  -3.06549
   D18       -1.02517  -0.00005   0.00000   0.00318   0.00319  -1.02198
   D19       -0.80325   0.00003   0.00000   0.00809   0.00806  -0.79518
   D20        1.31439  -0.00001   0.00000   0.00728   0.00727   1.32165
   D21       -2.85876   0.00012   0.00000   0.00635   0.00634  -2.85242
   D22       -2.96187   0.00005   0.00000   0.00647   0.00646  -2.95541
   D23       -0.84424   0.00002   0.00000   0.00567   0.00566  -0.83857
   D24        1.26580   0.00014   0.00000   0.00474   0.00474   1.27054
   D25        1.30765  -0.00012   0.00000   0.00553   0.00552   1.31316
   D26       -2.85790  -0.00015   0.00000   0.00473   0.00472  -2.85318
   D27       -0.74787  -0.00002   0.00000   0.00380   0.00379  -0.74407
   D28        0.63063  -0.00022   0.00000  -0.01600  -0.01602   0.61461
   D29       -2.93617   0.00060   0.00000   0.02934   0.02936  -2.90681
   D30       -1.51018  -0.00031   0.00000  -0.01584  -0.01587  -1.52605
   D31        1.20621   0.00050   0.00000   0.02949   0.02951   1.23572
   D32        2.70801  -0.00055   0.00000  -0.01802  -0.01804   2.68996
   D33       -0.85879   0.00026   0.00000   0.02732   0.02734  -0.83145
   D34        1.19589  -0.00019   0.00000  -0.00847  -0.00848   1.18741
   D35       -3.00890  -0.00010   0.00000  -0.00612  -0.00613  -3.01503
   D36       -0.90037  -0.00013   0.00000  -0.00796  -0.00797  -0.90834
   D37       -2.96037  -0.00008   0.00000  -0.00673  -0.00672  -2.96709
   D38       -0.88198   0.00001   0.00000  -0.00438  -0.00437  -0.88634
   D39        1.22655  -0.00002   0.00000  -0.00622  -0.00621   1.22035
   D40       -0.91588   0.00003   0.00000  -0.00428  -0.00429  -0.92017
   D41        1.16251   0.00012   0.00000  -0.00194  -0.00194   1.16057
   D42       -3.01214   0.00009   0.00000  -0.00377  -0.00377  -3.01592
   D43        1.09654  -0.00013   0.00000   0.01051   0.01052   1.10706
   D44       -3.08787   0.00017   0.00000   0.01771   0.01772  -3.07015
   D45       -0.98907   0.00005   0.00000   0.01492   0.01492  -0.97414
   D46       -0.98880  -0.00010   0.00000   0.00835   0.00835  -0.98045
   D47        1.10998   0.00020   0.00000   0.01555   0.01554   1.12552
   D48       -3.07440   0.00008   0.00000   0.01276   0.01275  -3.06165
   D49       -3.05339  -0.00009   0.00000   0.00837   0.00837  -3.04503
   D50       -0.95461   0.00021   0.00000   0.01557   0.01556  -0.93905
   D51        1.14419   0.00009   0.00000   0.01278   0.01277   1.15696
   D52       -0.63063   0.00022   0.00000   0.01599   0.01601  -0.61462
   D53        1.51011   0.00032   0.00000   0.01589   0.01592   1.52603
   D54       -2.70806   0.00056   0.00000   0.01806   0.01808  -2.68998
   D55        2.93620  -0.00061   0.00000  -0.02938  -0.02940   2.90679
   D56       -1.20625  -0.00050   0.00000  -0.02948  -0.02949  -1.23574
   D57        0.85876  -0.00027   0.00000  -0.02731  -0.02733   0.83143
   D58        0.80325  -0.00002   0.00000  -0.00807  -0.00804   0.79521
   D59       -1.30763   0.00012   0.00000  -0.00552  -0.00550  -1.31314
   D60        2.96188  -0.00005   0.00000  -0.00646  -0.00644   2.95544
   D61       -1.31434   0.00001   0.00000  -0.00729  -0.00728  -1.32162
   D62        2.85797   0.00015   0.00000  -0.00475  -0.00474   2.85322
   D63        0.84429  -0.00001   0.00000  -0.00569  -0.00568   0.83861
   D64        2.85891  -0.00013   0.00000  -0.00647  -0.00645   2.85245
   D65        0.74803   0.00002   0.00000  -0.00392  -0.00392   0.74411
   D66       -1.26564  -0.00015   0.00000  -0.00486  -0.00486  -1.27050
   D67        0.88245  -0.00002   0.00000   0.00411   0.00410   0.88654
   D68        2.96084   0.00008   0.00000   0.00647   0.00646   2.96730
   D69       -1.22604   0.00001   0.00000   0.00592   0.00591  -1.22013
   D70        3.00933   0.00010   0.00000   0.00588   0.00589   3.01523
   D71       -1.19546   0.00019   0.00000   0.00824   0.00825  -1.18721
   D72        0.90084   0.00013   0.00000   0.00769   0.00770   0.90855
   D73       -1.16217  -0.00011   0.00000   0.00178   0.00179  -1.16038
   D74        0.91622  -0.00002   0.00000   0.00414   0.00415   0.92037
   D75        3.01253  -0.00009   0.00000   0.00359   0.00360   3.01613
   D76        0.98906   0.00010   0.00000  -0.00850  -0.00850   0.98057
   D77        3.07467  -0.00008   0.00000  -0.01291  -0.01291   3.06177
   D78       -1.10978  -0.00020   0.00000  -0.01564  -0.01563  -1.12541
   D79       -1.09634   0.00014   0.00000  -0.01060  -0.01061  -1.10694
   D80        0.98927  -0.00005   0.00000  -0.01501  -0.01502   0.97425
   D81        3.08801  -0.00016   0.00000  -0.01773  -0.01774   3.07026
   D82        3.05369   0.00009   0.00000  -0.00856  -0.00855   3.04514
   D83       -1.14389  -0.00010   0.00000  -0.01297  -0.01297  -1.15685
   D84        0.95485  -0.00021   0.00000  -0.01569  -0.01569   0.93916
         Item               Value     Threshold  Converged?
 Maximum Force            0.006717     0.000450     NO 
 RMS     Force            0.002009     0.000300     NO 
 Maximum Displacement     0.042806     0.001800     NO 
 RMS     Displacement     0.011675     0.001200     NO 
 Predicted change in Energy=-1.041953D-03
 Lowest energy point so far.  Saving SCF results.
 Step   1 in ReCalcFC=50 IGetFC= 0 compute gradient.
 GradGradGradGradGradGradGradGradGradGradGradGradGradGradGradGradGradGrad

 Leave Link  103 at Wed Feb 28 21:00:47 2024, MaxMem=  2147483648 cpu:               4.4 elap:               0.2
 (Enter /software/gaussian-16RevA.03-el7-x86_64/g16/l202.exe)
                          Input orientation:                          
 ---------------------------------------------------------------------
 Center     Atomic      Atomic             Coordinates (Angstroms)
 Number     Number       Type             X           Y           Z
 ---------------------------------------------------------------------
      1          6           0        0.000069    2.118554   -0.000883
      2          6           0       -1.239517    1.384846   -0.494941
      3          6           0       -1.318795   -0.075093   -0.021686
      4          7           0        0.000004   -0.748248   -0.199976
      5          6           0        1.318827   -0.075151   -0.021656
      6          6           0        1.239623    1.384785   -0.494931
      7          6           0        1.733390   -0.164243    1.456782
      8          6           0        2.339699   -0.827985   -0.880746
      9          8           0       -0.000027   -2.011393   -0.098177
     10          6           0       -1.733415   -0.164186    1.456737
     11          6           0       -2.339667   -0.827877   -0.880822
     12          1           0        0.000095    3.151873   -0.385508
     13          1           0        0.000069    2.197367    1.100092
     14          1           0       -2.161432    1.897895   -0.172327
     15          1           0       -1.237323    1.398642   -1.600038
     16          1           0        1.237428    1.398566   -1.600029
     17          1           0        2.161562    1.897795   -0.172324
     18          1           0        1.656095   -1.207848    1.802335
     19          1           0        2.779035    0.166986    1.572184
     20          1           0        1.105632    0.465043    2.107044
     21          1           0        2.010777   -0.861545   -1.933088
     22          1           0        3.309881   -0.305520   -0.835852
     23          1           0        2.477008   -1.859351   -0.524440
     24          1           0       -2.779117    0.166890    1.572069
     25          1           0       -1.655984   -1.207764    1.802338
     26          1           0       -1.105790    0.465228    2.107004
     27          1           0       -2.010650   -0.861534   -1.933132
     28          1           0       -2.477117   -1.859208   -0.524468
     29          1           0       -3.309800   -0.305309   -0.836048
 ---------------------------------------------------------------------
                    Distance matrix (angstroms):
                    1          2          3          4          5
     1  C    0.000000
     2  C    1.522824   0.000000
     3  C    2.559673   1.536775   0.000000
     4  N    2.873707   2.484654   1.491360   0.000000
     5  C    2.559668   2.983406   2.637623   1.491359   0.000000
     6  C    1.522824   2.479139   2.983405   2.484649   1.536774
     7  C    3.215642   3.879055   3.392587   2.467901   1.538044
     8  C    3.863951   4.225665   3.832676   2.438027   1.531983
     9  O    4.131092   3.637058   2.343983   1.267240   2.343985
    10  C    3.215668   2.540173   1.538044   2.467907   3.392603
    11  C    3.863950   2.501075   1.531985   2.438022   3.832668
    12  H    1.102581   2.161249   3.505017   3.904531   3.505015
    13  H    1.103793   2.177359   2.856897   3.219755   2.856883
    14  H    2.179489   1.103280   2.150677   3.416817   4.003476
    15  H    2.146325   1.105186   2.160956   2.846101   3.346231
    16  H    2.146324   2.712317   3.346209   2.846081   2.160955
    17  H    2.179490   3.454639   4.003482   3.416817   2.150679
    18  H    4.130250   4.514876   3.668809   2.638773   2.173407
    19  H    3.742434   4.680272   4.403548   3.420704   2.175124
    20  H    2.898227   3.621613   3.271251   2.831400   2.206496
    21  H    4.081342   4.204634   3.918931   2.657014   2.179629
    22  H    4.186665   4.865242   4.705381   3.399358   2.163395
    23  H    4.715196   4.933380   4.224271   2.734114   2.185759
    24  H    3.742599   2.850669   2.175120   3.420692   4.403600
    25  H    4.130195   3.488920   2.173408   2.638696   3.668688
    26  H    2.898206   2.762915   2.206499   2.831513   3.271388
    27  H    4.081361   2.776556   2.179628   2.656952   3.918872
    28  H    4.715208   3.472234   2.185764   2.734164   4.224319
    29  H    4.186627   2.694263   2.163397   3.399350   4.705359
                    6          7          8          9         10
     6  C    0.000000
     7  C    2.540173   0.000000
     8  C    2.501074   2.504436   0.000000
     9  O    3.637055   2.972304   2.736272   0.000000
    10  C    3.879081   3.466804   4.742858   2.972299   0.000000
    11  C    4.225647   4.742846   4.679365   2.736267   2.504437
    12  H    2.161250   4.170728   4.643089   5.171254   4.170751
    13  H    2.177357   2.951073   4.307011   4.376014   2.951117
    14  H    3.454639   4.698515   5.309657   4.467628   2.662560
    15  H    2.712326   4.540032   4.274381   3.926172   3.468777
    16  H    1.105186   3.468781   2.586484   3.926153   4.540035
    17  H    1.103280   2.662578   2.821963   4.467629   4.698558
    18  H    3.488929   1.102040   2.794733   2.645822   3.563348
    19  H    2.850577   1.102907   2.683253   3.906229   4.526059
    20  H    2.762997   1.101327   3.481628   3.495456   2.979767
    21  H    2.776504   3.471944   1.103060   2.955060   5.098646
    22  H    2.694314   2.785939   1.102832   3.796005   5.541730
    23  H    3.472234   2.711384   1.099783   2.518039   4.952404
    24  H    4.680387   4.526108   5.762668   3.906145   1.102908
    25  H    4.514786   3.563173   4.827904   2.645745   1.102040
    26  H    3.621687   2.979927   4.740300   3.495595   1.101328
    27  H    4.204598   5.098585   4.475955   2.954968   3.471939
    28  H    4.933408   4.952436   4.938832   2.518106   2.711340
    29  H    4.865185   5.541726   5.673801   3.796020   2.785995
                   11         12         13         14         15
    11  C    0.000000
    12  H    4.643084   0.000000
    13  H    4.307027   1.765812   0.000000
    14  H    2.821979   2.508008   2.526028   0.000000
    15  H    2.586469   2.465786   3.075679   1.772453   0.000000
    16  H    4.274333   2.465794   3.075678   3.720203   2.474751
    17  H    5.309644   2.508007   2.526033   4.322994   3.720207
    18  H    4.828025   5.151326   3.851111   5.302683   5.171248
    19  H    5.762647   4.523783   3.473899   5.517933   5.264133
    20  H    4.740154   3.828064   2.288485   4.233474   4.483693
    21  H    4.476020   4.748197   4.753954   5.303029   3.971086
    22  H    5.673823   4.807397   4.578994   5.935535   4.915813
    23  H    4.938756   5.591670   5.023076   5.979633   5.056450
    24  H    2.683160   4.523964   3.474114   2.533936   3.735854
    25  H    2.794831   5.151282   3.851049   3.714822   4.306367
    26  H    3.481620   3.828010   2.288471   2.891758   3.825013
    27  H    1.103060   4.748228   4.753979   3.276831   2.411926
    28  H    1.099783   5.591674   5.023091   3.786751   3.647949
    29  H    1.102833   4.807338   4.579002   2.571650   2.789676
                   16         17         18         19         20
    16  H    0.000000
    17  H    1.772454   0.000000
    18  H    4.306363   3.714808   0.000000
    19  H    3.735810   2.533828   1.790009   0.000000
    20  H    3.825078   2.891934   1.787295   1.781907   0.000000
    21  H    2.411867   3.276734   3.768171   3.732965   4.347619
    22  H    2.789792   2.571674   3.241795   2.510716   3.756743
    23  H    3.647941   3.786772   2.551909   2.931398   3.769376
    24  H    5.264206   5.518084   4.649089   5.558152   3.932730
    25  H    5.171160   5.302589   3.312079   4.648904   3.243093
    26  H    4.483736   4.233577   3.243458   3.932792   2.211422
    27  H    3.971023   5.302989   5.245824   6.023801   5.272005
    28  H    5.056458   5.979667   4.787664   6.010702   5.016282
    29  H    4.915704   5.935486   5.695240   6.564797   5.362021
                   21         22         23         24         25
    21  H    0.000000
    22  H    1.789068   0.000000
    23  H    1.788093   1.790264   0.000000
    24  H    6.023860   6.564842   6.010645   0.000000
    25  H    5.245800   5.695078   4.787493   1.790007   0.000000
    26  H    5.272160   5.362146   5.016435   1.781904   1.787299
    27  H    4.021427   5.460882   4.808236   3.732911   3.768209
    28  H    4.808402   6.000021   4.954125   2.931167   2.551992
    29  H    5.460900   6.619681   5.999941   2.510702   3.242008
                   26         27         28         29
    26  H    0.000000
    27  H    4.347616   0.000000
    28  H    3.769375   1.788093   0.000000
    29  H    3.756720   1.789069   1.790264   0.000000
 Symmetry turned off by external request.
 Stoichiometry    C9H18NO(2)
 Framework group  C1[X(C9H18NO)]
 Deg. of freedom    81
 Full point group                 C1      NOp   1
 Rotational constants (GHZ):           1.4847038           1.0673839           0.8588171
 Leave Link  202 at Wed Feb 28 21:00:47 2024, MaxMem=  2147483648 cpu:               0.3 elap:               0.0
 (Enter /software/gaussian-16RevA.03-el7-x86_64/g16/l301.exe)
 Standard basis: def2SVPP (5D, 7F)
 Ernie: Thresh=  0.10000D-02 Tol=  0.10000D-05 Strict=F.
   190 basis functions,   347 primitive gaussians,   201 cartesian basis functions
    44 alpha electrons       43 beta electrons
       nuclear repulsion energy       716.4692061344 Hartrees.
 IExCor= 4639 DFT=T Ex+Corr=wB97XD ExCW=0 ScaHFX=  1.000000
 ScaDFX=  1.000000  1.000000  1.000000  1.000000 ScalE2=  1.000000  1.000000
 IRadAn=      5 IRanWt=     -1 IRanGd=            0 ICorTp=0 IEmpDi=121
 HFx  wShort=  0.000000 wLong=  0.200000 cFull=  0.222036 cShort=  0.000000 cLong=  0.777964
 DFx  wShort=  0.000000 wLong=  0.200000 cFull=  0.000000 cShort=  0.000000 cLong=  1.000000
 NAtoms=   29 NActive=   29 NUniq=   29 SFac= 1.00D+00 NAtFMM=   60 NAOKFM=F Big=F
 Integral buffers will be    131072 words long.
 Raffenetti 2 integral format.
 Two-electron integral symmetry is turned off.
 R6Disp:  Grimme-D2 Dispersion energy=       -0.0257171578 Hartrees.
 Nuclear repulsion after empirical dispersion term =      716.4434889765 Hartrees.
 Force inversion solution in PCM.
 ------------------------------------------------------------------------------
 Polarizable Continuum Model (PCM)
 =================================
 Model                : PCM.
 Atomic radii         : UFF (Universal Force Field).
 Polarization charges : Total charges.
 Charge compensation  : None.
 Solution method      : Matrix inversion.
 Cavity type          : Scaled VdW (van der Waals Surface) (Alpha=1.100).
 Cavity algorithm     : GePol (No added spheres)
                        Default sphere list used, NSphG=   29.
                        Lebedev-Laikov grids with approx.  5.0 points / Ang**2.
                        Smoothing algorithm: York/Karplus (Gamma=1.0000).
                        Polarization charges: spherical gaussians, with
                                              point-specific exponents (IZeta= 3).
                        Self-potential: point-specific (ISelfS= 7).
                        Self-field    : sphere-specific E.n sum rule (ISelfD= 2).
 1st derivatives      : Analytical E(r).r(x)/FMM algorithm (CHGder, D1EAlg=3).
                        Cavity 1st derivative terms included.
 Solvent              : n,n-DiMethylFormamide, Eps=  37.219000 Eps(inf)=   2.046330
 ------------------------------------------------------------------------------
 GePol: Number of generator spheres                  =      29
 GePol: Total number of spheres                      =      29
 GePol: Number of exposed spheres                    =      29 (100.00%)
 GePol: Number of points                             =    1749
 GePol: Average weight of points                     =       0.14
 GePol: Minimum weight of points                     =   0.53D-09
 GePol: Maximum weight of points                     =    0.20577
 GePol: Number of points with low weight             =      98
 GePol: Fraction of low-weight points (<1% of avg)   =       5.60%
 GePol: Cavity surface area                          =    236.538 Ang**2
 GePol: Cavity volume                                =    256.555 Ang**3
 Leave Link  301 at Wed Feb 28 21:00:47 2024, MaxMem=  2147483648 cpu:               2.5 elap:               0.1
 (Enter /software/gaussian-16RevA.03-el7-x86_64/g16/l302.exe)
 NPDir=0 NMtPBC=     1 NCelOv=     1 NCel=       1 NClECP=     1 NCelD=      1
         NCelK=      1 NCelE2=     1 NClLst=     1 CellRange=     0.0.
 One-electron integrals computed using PRISM.
   1 Symmetry operations used in ECPInt.
 ECPInt:  NShTT=    5253 NPrTT=   21107 LenC2=    5228 LenP2D=   16397.
 LDataN:  DoStor=T MaxTD1= 4 Len=   56
 NBasis=   190 RedAO= T EigKep=  1.01D-03  NBF=   190
 NBsUse=   190 1.00D-06 EigRej= -1.00D+00 NBFU=   190
 Precomputing XC quadrature grid using
 IXCGrd= 4 IRadAn=           5 IRanWt=          -1 IRanGd=           0 AccXCQ= 0.00D+00.
 Generated NRdTot=       0 NPtTot=           0 NUsed=           0 NTot=          32
 NSgBfM=   201   201   201   201   201 MxSgAt=    29 MxSgA2=    29.
 Leave Link  302 at Wed Feb 28 21:00:47 2024, MaxMem=  2147483648 cpu:               8.0 elap:               0.3
 (Enter /software/gaussian-16RevA.03-el7-x86_64/g16/l303.exe)
 DipDrv:  MaxL=1.
 Leave Link  303 at Wed Feb 28 21:00:48 2024, MaxMem=  2147483648 cpu:               3.7 elap:               0.2
 (Enter /software/gaussian-16RevA.03-el7-x86_64/g16/l401.exe)
 Initial guess from the checkpoint file:  "TEMPO-cavity-in-DMF-wB97XD.chk"
 B after Tr=     0.000032   -0.001494    0.001470
         Rot=    1.000000   -0.000514    0.000002   -0.000004 Ang=  -0.06 deg.
 Guess basis will be translated and rotated to current coordinates.
 JPrj=2 DoOrth=T DoCkMO=T.
 Initial guess <Sx>= 0.0000 <Sy>= 0.0000 <Sz>= 0.5000 <S**2>= 0.7539 S= 0.5019
 Generating alternative initial guess.
 ExpMin= 1.22D-01 ExpMax= 2.27D+03 ExpMxC= 3.41D+02 IAcc=2 IRadAn=         4 AccDes= 0.00D+00
 Harris functional with IExCor= 4639 and IRadAn=       4 diagonalized for initial guess.
 HarFok:  IExCor= 4639 AccDes= 0.00D+00 IRadAn=         4 IDoV= 1 UseB2=F ITyADJ=14
 ICtDFT=  3500011 ScaDFX=  1.000000  1.000000  1.000000  1.000000
 FoFCou: FMM=F IPFlag=           0 FMFlag=      100000 FMFlg1=           0
         NFxFlg=           0 DoJE=T BraDBF=F KetDBF=T FulRan=T
         wScrn=  0.000000 ICntrl=       500 IOpCl=  0 I1Cent=   200000004 NGrid=           0
         NMat0=    1 NMatS0=      1 NMatT0=    0 NMatD0=    1 NMtDS0=    0 NMtDT0=    0
 Symmetry not used in FoFCou.
 Harris En= -461.008892089887    
 Leave Link  401 at Wed Feb 28 21:00:48 2024, MaxMem=  2147483648 cpu:              11.2 elap:               0.4
 (Enter /software/gaussian-16RevA.03-el7-x86_64/g16/l502.exe)
 Two-electron integral symmetry not used.
 UHF open shell SCF:
 Using DIIS extrapolation, IDIIS=  1040.
 NGot=  2147483648 LenX=  2147395142 LenY=  2147354300
 Requested convergence on RMS density matrix=1.00D-08 within  32 cycles.
 Requested convergence on MAX density matrix=1.00D-06.
 Requested convergence on             energy=1.00D-06.
 No special actions if energy rises.
 Fock matrices will be formed incrementally for  20 cycles.

 Cycle   1  Pass 1  IDiag  1:
 FoFJK:  IHMeth= 1 ICntrl=       0 DoSepK=T KAlg= 0 I1Cent=           0 FoldK=F
 IRaf=         1 NMat=       1 IRICut=       1 DoRegI=T DoRafI=F ISym2E= 0 IDoP0=0 IntGTp=1.
 FoFCou: FMM=F IPFlag=           0 FMFlag=      100000 FMFlg1=           0
         NFxFlg=           0 DoJE=T BraDBF=F KetDBF=F FulRan=T
         wScrn=  0.000000 ICntrl=       500 IOpCl=  0 I1Cent=           0 NGrid=           0
         NMat0=    1 NMatS0=      1 NMatT0=    0 NMatD0=    1 NMtDS0=    0 NMtDT0=    0
 Symmetry not used in FoFCou.
 Inv3:  Mode=1 IEnd=     9177003.
 Iteration    1 A*A^-1 deviation from unit magnitude is 3.66D-15 for    102.
 Iteration    1 A*A^-1 deviation from orthogonality  is 2.28D-15 for   1418    917.
 Iteration    1 A^-1*A deviation from unit magnitude is 3.11D-15 for    629.
 Iteration    1 A^-1*A deviation from orthogonality  is 2.00D-15 for   1464    412.
 E= -483.205066521769    
 DIIS: error= 1.79D-03 at cycle   1 NSaved=   1.
 NSaved= 1 IEnMin= 1 EnMin= -483.205066521769     IErMin= 1 ErrMin= 1.79D-03
 ErrMax= 1.79D-03  0.00D+00 EMaxC= 1.00D-01 BMatC= 2.17D-03 BMatP= 2.17D-03
 IDIUse=3 WtCom= 9.82D-01 WtEn= 1.79D-02
 Coeff-Com:  0.100D+01
 Coeff-En:   0.100D+01
 Coeff:      0.100D+01
 Gap=     0.661 Goal=   None    Shift=    0.000
 Gap=     0.712 Goal=   None    Shift=    0.000
 GapD=    0.661 DampG=2.000 DampE=1.000 DampFc=2.0000 IDamp=-1.
 RMSDP=2.43D-04 MaxDP=5.37D-03              OVMax= 6.85D-03

 Cycle   2  Pass 1  IDiag  1:
 RMSU=  2.42D-04    CP:  9.99D-01
 E= -483.205874085316     Delta-E=       -0.000807563547 Rises=F Damp=F
 DIIS: error= 4.07D-04 at cycle   2 NSaved=   2.
 NSaved= 2 IEnMin= 2 EnMin= -483.205874085316     IErMin= 2 ErrMin= 4.07D-04
 ErrMax= 4.07D-04  0.00D+00 EMaxC= 1.00D-01 BMatC= 2.29D-04 BMatP= 2.17D-03
 IDIUse=3 WtCom= 9.96D-01 WtEn= 4.07D-03
 Coeff-Com:  0.420D-01 0.958D+00
 Coeff-En:   0.000D+00 0.100D+01
 Coeff:      0.418D-01 0.958D+00
 Gap=     0.401 Goal=   None    Shift=    0.000
 Gap=     0.352 Goal=   None    Shift=    0.000
 RMSDP=7.24D-05 MaxDP=2.48D-03 DE=-8.08D-04 OVMax= 2.38D-03

 Cycle   3  Pass 1  IDiag  1:
 RMSU=  7.02D-05    CP:  9.99D-01  1.07D+00
 E= -483.205938364708     Delta-E=       -0.000064279391 Rises=F Damp=F
 DIIS: error= 2.89D-04 at cycle   3 NSaved=   3.
 NSaved= 3 IEnMin= 3 EnMin= -483.205938364708     IErMin= 3 ErrMin= 2.89D-04
 ErrMax= 2.89D-04  0.00D+00 EMaxC= 1.00D-01 BMatC= 8.53D-05 BMatP= 2.29D-04
 IDIUse=3 WtCom= 9.97D-01 WtEn= 2.89D-03
 Coeff-Com: -0.882D-01 0.371D+00 0.718D+00
 Coeff-En:   0.000D+00 0.000D+00 0.100D+01
 Coeff:     -0.880D-01 0.369D+00 0.719D+00
 Gap=     0.402 Goal=   None    Shift=    0.000
 Gap=     0.352 Goal=   None    Shift=    0.000
 RMSDP=3.00D-05 MaxDP=1.02D-03 DE=-6.43D-05 OVMax= 9.01D-04

 Cycle   4  Pass 1  IDiag  1:
 RMSU=  2.31D-05    CP:  9.99D-01  1.14D+00  9.20D-01
 E= -483.205962842679     Delta-E=       -0.000024477972 Rises=F Damp=F
 DIIS: error= 1.12D-04 at cycle   4 NSaved=   4.
 NSaved= 4 IEnMin= 4 EnMin= -483.205962842679     IErMin= 4 ErrMin= 1.12D-04
 ErrMax= 1.12D-04  0.00D+00 EMaxC= 1.00D-01 BMatC= 2.22D-06 BMatP= 8.53D-05
 IDIUse=3 WtCom= 9.99D-01 WtEn= 1.12D-03
 Coeff-Com: -0.128D-01 0.543D-02 0.822D-01 0.925D+00
 Coeff-En:   0.000D+00 0.000D+00 0.000D+00 0.100D+01
 Coeff:     -0.128D-01 0.542D-02 0.821D-01 0.925D+00
 Gap=     0.402 Goal=   None    Shift=    0.000
 Gap=     0.352 Goal=   None    Shift=    0.000
 RMSDP=9.15D-06 MaxDP=4.33D-04 DE=-2.45D-05 OVMax= 4.59D-04

 Cycle   5  Pass 1  IDiag  1:
 RMSU=  6.07D-06    CP:  9.99D-01  1.15D+00  9.89D-01  1.18D+00
 E= -483.205963904448     Delta-E=       -0.000001061769 Rises=F Damp=F
 DIIS: error= 5.22D-05 at cycle   5 NSaved=   5.
 NSaved= 5 IEnMin= 5 EnMin= -483.205963904448     IErMin= 5 ErrMin= 5.22D-05
 ErrMax= 5.22D-05  0.00D+00 EMaxC= 1.00D-01 BMatC= 1.16D-06 BMatP= 2.22D-06
 IDIUse=1 WtCom= 1.00D+00 WtEn= 0.00D+00
 Coeff-Com:  0.709D-02-0.547D-01-0.724D-01 0.443D+00 0.677D+00
 Coeff:      0.709D-02-0.547D-01-0.724D-01 0.443D+00 0.677D+00
 Gap=     0.402 Goal=   None    Shift=    0.000
 Gap=     0.352 Goal=   None    Shift=    0.000
 RMSDP=4.65D-06 MaxDP=2.20D-04 DE=-1.06D-06 OVMax= 2.27D-04

 Cycle   6  Pass 1  IDiag  1:
 RMSU=  3.02D-06    CP:  9.99D-01  1.16D+00  1.02D+00  1.30D+00  9.77D-01
 E= -483.205964287167     Delta-E=       -0.000000382719 Rises=F Damp=F
 DIIS: error= 2.98D-05 at cycle   6 NSaved=   6.
 NSaved= 6 IEnMin= 6 EnMin= -483.205964287167     IErMin= 6 ErrMin= 2.98D-05
 ErrMax= 2.98D-05  0.00D+00 EMaxC= 1.00D-01 BMatC= 1.38D-07 BMatP= 1.16D-06
 IDIUse=1 WtCom= 1.00D+00 WtEn= 0.00D+00
 Coeff-Com:  0.465D-02-0.186D-01-0.375D-01-0.267D-01 0.196D+00 0.882D+00
 Coeff:      0.465D-02-0.186D-01-0.375D-01-0.267D-01 0.196D+00 0.882D+00
 Gap=     0.402 Goal=   None    Shift=    0.000
 Gap=     0.352 Goal=   None    Shift=    0.000
 RMSDP=2.27D-06 MaxDP=9.44D-05 DE=-3.83D-07 OVMax= 1.52D-04

 Cycle   7  Pass 1  IDiag  1:
 RMSU=  1.51D-06    CP:  9.99D-01  1.16D+00  1.03D+00  1.35D+00  1.15D+00
                    CP:  1.14D+00
 E= -483.205964365413     Delta-E=       -0.000000078246 Rises=F Damp=F
 DIIS: error= 1.30D-05 at cycle   7 NSaved=   7.
 NSaved= 7 IEnMin= 7 EnMin= -483.205964365413     IErMin= 7 ErrMin= 1.30D-05
 ErrMax= 1.30D-05  0.00D+00 EMaxC= 1.00D-01 BMatC= 4.92D-08 BMatP= 1.38D-07
 IDIUse=1 WtCom= 1.00D+00 WtEn= 0.00D+00
 Coeff-Com:  0.253D-03 0.625D-02 0.225D-02-0.130D+00-0.994D-01 0.422D+00
 Coeff-Com:  0.798D+00
 Coeff:      0.253D-03 0.625D-02 0.225D-02-0.130D+00-0.994D-01 0.422D+00
 Coeff:      0.798D+00
 Gap=     0.402 Goal=   None    Shift=    0.000
 Gap=     0.352 Goal=   None    Shift=    0.000
 RMSDP=1.24D-06 MaxDP=5.21D-05 DE=-7.82D-08 OVMax= 7.38D-05

 Cycle   8  Pass 1  IDiag  1:
 RMSU=  6.00D-07    CP:  9.99D-01  1.16D+00  1.03D+00  1.36D+00  1.25D+00
                    CP:  1.41D+00  1.02D+00
 E= -483.205964386690     Delta-E=       -0.000000021276 Rises=F Damp=F
 DIIS: error= 3.21D-06 at cycle   8 NSaved=   8.
 NSaved= 8 IEnMin= 8 EnMin= -483.205964386690     IErMin= 8 ErrMin= 3.21D-06
 ErrMax= 3.21D-06  0.00D+00 EMaxC= 1.00D-01 BMatC= 1.97D-09 BMatP= 4.92D-08
 IDIUse=1 WtCom= 1.00D+00 WtEn= 0.00D+00
 Coeff-Com: -0.665D-03 0.362D-02 0.600D-02-0.110D-01-0.485D-01-0.697D-01
 Coeff-Com:  0.911D-01 0.103D+01
 Coeff:     -0.665D-03 0.362D-02 0.600D-02-0.110D-01-0.485D-01-0.697D-01
 Coeff:      0.911D-01 0.103D+01
 Gap=     0.402 Goal=   None    Shift=    0.000
 Gap=     0.352 Goal=   None    Shift=    0.000
 RMSDP=3.94D-07 MaxDP=1.81D-05 DE=-2.13D-08 OVMax= 2.92D-05

 Cycle   9  Pass 1  IDiag  1:
 RMSU=  1.44D-07    CP:  9.99D-01  1.16D+00  1.03D+00  1.36D+00  1.27D+00
                    CP:  1.48D+00  1.16D+00  1.20D+00
 E= -483.205964388260     Delta-E=       -0.000000001570 Rises=F Damp=F
 DIIS: error= 4.80D-07 at cycle   9 NSaved=   9.
 NSaved= 9 IEnMin= 9 EnMin= -483.205964388260     IErMin= 9 ErrMin= 4.80D-07
 ErrMax= 4.80D-07  0.00D+00 EMaxC= 1.00D-01 BMatC= 1.63D-10 BMatP= 1.97D-09
 IDIUse=1 WtCom= 1.00D+00 WtEn= 0.00D+00
 Coeff-Com: -0.774D-04 0.130D-03 0.447D-03 0.449D-02-0.350D-02-0.167D-01
 Coeff-Com: -0.315D-01 0.101D+00 0.945D+00
 Coeff:     -0.774D-04 0.130D-03 0.447D-03 0.449D-02-0.350D-02-0.167D-01
 Coeff:     -0.315D-01 0.101D+00 0.945D+00
 Gap=     0.402 Goal=   None    Shift=    0.000
 Gap=     0.352 Goal=   None    Shift=    0.000
 RMSDP=9.24D-08 MaxDP=2.80D-06 DE=-1.57D-09 OVMax= 6.18D-06

 Cycle  10  Pass 1  IDiag  1:
 RMSU=  5.59D-08    CP:  9.99D-01  1.16D+00  1.03D+00  1.36D+00  1.27D+00
                    CP:  1.49D+00  1.17D+00  1.27D+00  1.21D+00
 E= -483.205964388349     Delta-E=       -0.000000000089 Rises=F Damp=F
 DIIS: error= 3.23D-07 at cycle  10 NSaved=  10.
 NSaved=10 IEnMin=10 EnMin= -483.205964388349     IErMin=10 ErrMin= 3.23D-07
 ErrMax= 3.23D-07  0.00D+00 EMaxC= 1.00D-01 BMatC= 5.13D-11 BMatP= 1.63D-10
 IDIUse=1 WtCom= 1.00D+00 WtEn= 0.00D+00
 Coeff-Com:  0.984D-04-0.618D-03-0.974D-03 0.364D-02 0.655D-02 0.107D-01
 Coeff-Com: -0.312D-01-0.155D+00 0.311D+00 0.856D+00
 Coeff:      0.984D-04-0.618D-03-0.974D-03 0.364D-02 0.655D-02 0.107D-01
 Coeff:     -0.312D-01-0.155D+00 0.311D+00 0.856D+00
 Gap=     0.402 Goal=   None    Shift=    0.000
 Gap=     0.352 Goal=   None    Shift=    0.000
 RMSDP=4.80D-08 MaxDP=1.86D-06 DE=-8.88D-11 OVMax= 3.59D-06

 Cycle  11  Pass 1  IDiag  1:
 RMSU=  2.19D-08    CP:  9.99D-01  1.16D+00  1.03D+00  1.36D+00  1.26D+00
                    CP:  1.50D+00  1.17D+00  1.30D+00  1.43D+00  1.14D+00
 E= -483.205964388375     Delta-E=       -0.000000000027 Rises=F Damp=F
 DIIS: error= 1.42D-07 at cycle  11 NSaved=  11.
 NSaved=11 IEnMin=11 EnMin= -483.205964388375     IErMin=11 ErrMin= 1.42D-07
 ErrMax= 1.42D-07  0.00D+00 EMaxC= 1.00D-01 BMatC= 8.66D-12 BMatP= 5.13D-11
 IDIUse=1 WtCom= 1.00D+00 WtEn= 0.00D+00
 Coeff-Com: -0.735D-05 0.118D-03 0.131D-03-0.159D-02-0.197D-02 0.431D-02
 Coeff-Com:  0.848D-02 0.209D-01-0.250D+00-0.252D+00 0.147D+01
 Coeff:     -0.735D-05 0.118D-03 0.131D-03-0.159D-02-0.197D-02 0.431D-02
 Coeff:      0.848D-02 0.209D-01-0.250D+00-0.252D+00 0.147D+01
 Gap=     0.402 Goal=   None    Shift=    0.000
 Gap=     0.352 Goal=   None    Shift=    0.000
 RMSDP=3.31D-08 MaxDP=1.63D-06 DE=-2.67D-11 OVMax= 2.98D-06

 Cycle  12  Pass 1  IDiag  1:
 RMSU=  8.22D-09    CP:  9.99D-01  1.16D+00  1.03D+00  1.36D+00  1.26D+00
                    CP:  1.50D+00  1.16D+00  1.31D+00  1.54D+00  1.45D+00
                    CP:  1.69D+00
 E= -483.205964388387     Delta-E=       -0.000000000012 Rises=F Damp=F
 DIIS: error= 4.95D-08 at cycle  12 NSaved=  12.
 NSaved=12 IEnMin=12 EnMin= -483.205964388387     IErMin=12 ErrMin= 4.95D-08
 ErrMax= 4.95D-08  0.00D+00 EMaxC= 1.00D-01 BMatC= 7.48D-13 BMatP= 8.66D-12
 IDIUse=1 WtCom= 1.00D+00 WtEn= 0.00D+00
 Coeff-Com: -0.101D-04 0.635D-04 0.984D-04-0.342D-03-0.935D-03-0.506D-03
 Coeff-Com:  0.204D-02 0.176D-01-0.300D-01-0.990D-01-0.383D-02 0.111D+01
 Coeff:     -0.101D-04 0.635D-04 0.984D-04-0.342D-03-0.935D-03-0.506D-03
 Coeff:      0.204D-02 0.176D-01-0.300D-01-0.990D-01-0.383D-02 0.111D+01
 Gap=     0.402 Goal=   None    Shift=    0.000
 Gap=     0.352 Goal=   None    Shift=    0.000
 RMSDP=8.35D-09 MaxDP=4.44D-07 DE=-1.19D-11 OVMax= 8.22D-07

 Error on total polarization charges =  0.00923
 SCF Done:  E(UwB97XD) =  -483.205964388     A.U. after   12 cycles
            NFock= 12  Conv=0.84D-08     -V/T= 2.0105
 <Sx>= 0.0000 <Sy>= 0.0000 <Sz>= 0.5000 <S**2>= 0.7539 S= 0.5020
 <L.S>=  0.00000000000    
 KE= 4.781725677501D+02 PE=-2.553828521879D+03 EE= 8.760065007643D+02
 Annihilation of the first spin contaminant:
 S**2 before annihilation     0.7539,   after     0.7500
 Leave Link  502 at Wed Feb 28 21:01:08 2024, MaxMem=  2147483648 cpu:             536.5 elap:              19.5
 (Enter /software/gaussian-16RevA.03-el7-x86_64/g16/l508.exe)
 QCSCF skips out because SCF is already converged.
 Leave Link  508 at Wed Feb 28 21:01:08 2024, MaxMem=  2147483648 cpu:               0.1 elap:               0.0
 (Enter /software/gaussian-16RevA.03-el7-x86_64/g16/l801.exe)
 DoSCS=F DFT=T ScalE2(SS,OS)=  1.000000  1.000000
 Range of M.O.s used for correlation:     1   190
 NBasis=   190 NAE=    44 NBE=    43 NFC=     0 NFV=     0
 NROrb=    190 NOA=    44 NOB=    43 NVA=   146 NVB=   147
 Leave Link  801 at Wed Feb 28 21:01:08 2024, MaxMem=  2147483648 cpu:               1.4 elap:               0.1
 (Enter /software/gaussian-16RevA.03-el7-x86_64/g16/l1101.exe)
 Leave Link 1101 at Wed Feb 28 21:01:08 2024, MaxMem=  2147483648 cpu:               1.1 elap:               0.1
 (Enter /software/gaussian-16RevA.03-el7-x86_64/g16/l1102.exe)
 Symmetrizing basis deriv contribution to polar:
 IMax=3 JMax=2 DiffMx= 0.00D+00
 Leave Link 1102 at Wed Feb 28 21:01:08 2024, MaxMem=  2147483648 cpu:               1.1 elap:               0.1
 (Enter /software/gaussian-16RevA.03-el7-x86_64/g16/l1110.exe)
 Leave Link 1110 at Wed Feb 28 21:01:08 2024, MaxMem=  2147483648 cpu:               0.7 elap:               0.1
 (Enter /software/gaussian-16RevA.03-el7-x86_64/g16/l1002.exe)
 Minotr:  UHF open shell wavefunction.
 Leave Link 1002 at Wed Feb 28 21:01:08 2024, MaxMem=  2147483648 cpu:               0.7 elap:               0.1
 (Enter /software/gaussian-16RevA.03-el7-x86_64/g16/l701.exe)
 ... and contract with generalized density number  0.
 Compute integral first derivatives.
 R6Disp: Adding Grimme-D2 dispersion energy 1st derivatives to the gradient.
   1 Symmetry operations used in ECPInt.
 ECPInt:  NShTT=    5253 NPrTT=   21107 LenC2=    5228 LenP2D=   16397.
 LDataN:  DoStor=T MaxTD1= 5 Len=  102
 D1PCM: PCM CHGder 1st derivatives, ID1Alg=3 FixD1E=F DoIter=F DoCFld=F I1PDM=0.
 GePol: Maximum number of non-zero 1st derivatives   =     164
 Leave Link  701 at Wed Feb 28 21:01:09 2024, MaxMem=  2147483648 cpu:              21.1 elap:               0.8
 (Enter /software/gaussian-16RevA.03-el7-x86_64/g16/l702.exe)
 L702 exits ... SP integral derivatives will be done elsewhere.
 Leave Link  702 at Wed Feb 28 21:01:09 2024, MaxMem=  2147483648 cpu:               0.6 elap:               0.0
 (Enter /software/gaussian-16RevA.03-el7-x86_64/g16/l703.exe)
 Integral derivatives from FoFJK, PRISM(SPDF).
 Compute integral first derivatives, UseDBF=F ICtDFT=           0.
 Calling FoFJK, ICntrl=      2127 FMM=F ISym2X=0 I1Cent= 0 IOpClX= 1 NMat=1 NMatS=1 NMatT=0.
 FoFJK:  IHMeth= 1 ICntrl=    2127 DoSepK=T KAlg= 0 I1Cent=           0 FoldK=F
 IRaf=         1 NMat=       1 IRICut=       1 DoRegI=T DoRafI=F ISym2E= 0 IDoP0=0 IntGTp=1.
 FoFCou: FMM=F IPFlag=           0 FMFlag=      100000 FMFlg1=         800
         NFxFlg=           0 DoJE=F BraDBF=F KetDBF=F FulRan=T
         wScrn=  0.000000 ICntrl=      2527 IOpCl=  0 I1Cent=           0 NGrid=           0
         NMat0=    1 NMatS0=      1 NMatT0=    0 NMatD0=    1 NMtDS0=    0 NMtDT0=    0
 Symmetry not used in FoFCou.
 Leave Link  703 at Wed Feb 28 21:01:12 2024, MaxMem=  2147483648 cpu:              86.1 elap:               3.1
 (Enter /software/gaussian-16RevA.03-el7-x86_64/g16/l716.exe)
 Dipole        = 3.32274437D-05 1.58900113D+00 1.16653478D-01
 Polarizability= 0.00000000D+00 0.00000000D+00 0.00000000D+00
                 0.00000000D+00 0.00000000D+00 0.00000000D+00
 -------------------------------------------------------------------
 Center     Atomic                   Forces (Hartrees/Bohr)
 Number     Number              X              Y              Z
 -------------------------------------------------------------------
      1        6           0.000000150   -0.000191494   -0.000085996
      2        6           0.000064788   -0.000051476    0.000108301
      3        6           0.000024932    0.000025863   -0.000142750
      4        7           0.000000394    0.000065979    0.000479879
      5        6          -0.000024460    0.000026763   -0.000141803
      6        6          -0.000065557   -0.000051384    0.000108254
      7        6          -0.000035901    0.000018315   -0.000175804
      8        6          -0.000136419    0.000076830    0.000105567
      9        8          -0.000000163   -0.000099380   -0.000218566
     10        6           0.000035344    0.000019124   -0.000175479
     11        6           0.000136721    0.000076631    0.000105434
     12        1           0.000000005    0.000145139   -0.000085078
     13        1          -0.000000078    0.000048281    0.000134581
     14        1          -0.000120575    0.000075309    0.000062167
     15        1          -0.000016955    0.000013416   -0.000143634
     16        1           0.000017072    0.000013431   -0.000143499
     17        1           0.000120570    0.000075383    0.000062244
     18        1          -0.000009198   -0.000193544    0.000060397
     19        1           0.000160880    0.000074691    0.000022620
     20        1          -0.000112758    0.000086999    0.000109773
     21        1          -0.000074138   -0.000025402   -0.000196312
     22        1           0.000142264    0.000094854   -0.000030099
     23        1           0.000085205   -0.000180984    0.000106546
     24        1          -0.000160725    0.000075270    0.000022806
     25        1           0.000008708   -0.000193688    0.000060039
     26        1           0.000113332    0.000086487    0.000109922
     27        1           0.000073771   -0.000025034   -0.000196215
     28        1          -0.000084967   -0.000180960    0.000106467
     29        1          -0.000142241    0.000094579   -0.000029763
 -------------------------------------------------------------------
 Cartesian Forces:  Max     0.000479879 RMS     0.000115234
 Leave Link  716 at Wed Feb 28 21:01:12 2024, MaxMem=  2147483648 cpu:               0.7 elap:               0.0
 (Enter /software/gaussian-16RevA.03-el7-x86_64/g16/l103.exe)

 GradGradGradGradGradGradGradGradGradGradGradGradGradGradGradGradGradGrad
 Berny optimization.
 Using GEDIIS/GDIIS optimizer.
 FormGI is forming the generalized inverse of G from B-inverse, IUseBI=4.
 Internal  Forces:  Max     0.000214413 RMS     0.000063150
 Step   2 in ReCalcFC=50 IGetFC= 0 update Hessian.
 Search for a local minimum.
 Step number   2 out of a maximum of  174
 All quantities printed in internal units (Hartrees-Bohrs-Radians)
 RMS Force = .63150D-04 SwitMx=.10000D-02 MixMth= 2
 Mixed Optimization -- En-DIIS/RFO-DIIS
 Update second derivatives using D2CorX and points    1    2
 DE= -1.06D-03 DEPred=-1.04D-03 R= 1.02D+00
 TightC=F SS=  1.41D+00  RLast= 1.30D-01 DXNew= 5.0454D-01 3.9090D-01
 Trust test= 1.02D+00 RLast= 1.30D-01 DXMaxT set to 3.91D-01
 ITU=  1  0
 Use linear search instead of GDIIS.
     Eigenvalues ---    0.00222   0.00253   0.00356   0.00376   0.00493
     Eigenvalues ---    0.00642   0.00740   0.01424   0.02469   0.02632
     Eigenvalues ---    0.03893   0.03959   0.04017   0.04385   0.04485
     Eigenvalues ---    0.04533   0.04540   0.04619   0.04668   0.04675
     Eigenvalues ---    0.04770   0.04787   0.04908   0.05166   0.05780
     Eigenvalues ---    0.06129   0.06298   0.06866   0.07202   0.07303
     Eigenvalues ---    0.07706   0.08455   0.09021   0.10672   0.11456
     Eigenvalues ---    0.12302   0.12476   0.12742   0.12764   0.13454
     Eigenvalues ---    0.14396   0.14736   0.14835   0.15343   0.15506
     Eigenvalues ---    0.15767   0.15905   0.16176   0.17766   0.19012
     Eigenvalues ---    0.21893   0.22126   0.26148   0.26206   0.28606
     Eigenvalues ---    0.28841   0.29062   0.29724   0.30246   0.31843
     Eigenvalues ---    0.34529   0.34670   0.34811   0.35191   0.35330
     Eigenvalues ---    0.35372   0.35475   0.35786   0.35813   0.35882
     Eigenvalues ---    0.35912   0.36089   0.36091   0.36192   0.36333
     Eigenvalues ---    0.36361   0.36434   0.36804   0.36951   0.38020
     Eigenvalues ---    0.63591
 RFO step:  Lambda=-9.00297112D-06 EMin= 2.22177689D-03
 Quartic linear search produced a step of  0.04404.
 Iteration  1 RMS(Cart)=  0.00399643 RMS(Int)=  0.00001865
 Iteration  2 RMS(Cart)=  0.00001885 RMS(Int)=  0.00000387
 Iteration  3 RMS(Cart)=  0.00000000 RMS(Int)=  0.00000387
 ITry= 1 IFail=0 DXMaxC= 1.68D-02 DCOld= 1.00D+10 DXMaxT= 3.91D-01 DXLimC= 3.00D+00 Rises=F
 Variable       Old X    -DE/DX   Delta X   Delta X   Delta X     New X
                                 (Linear)    (Quad)   (Total)
    R1        2.87772   0.00001   0.00002  -0.00004  -0.00003   2.87769
    R2        2.87772   0.00001   0.00002  -0.00004  -0.00003   2.87769
    R3        2.08358   0.00017   0.00069  -0.00018   0.00051   2.08408
    R4        2.08587   0.00014   0.00065  -0.00018   0.00047   2.08634
    R5        2.90408   0.00003   0.00022  -0.00009   0.00013   2.90421
    R6        2.08490   0.00015   0.00067  -0.00023   0.00044   2.08534
    R7        2.08850   0.00014   0.00065  -0.00018   0.00046   2.08896
    R8        2.81826   0.00004  -0.00013  -0.00053  -0.00066   2.81761
    R9        2.90648   0.00002   0.00024  -0.00017   0.00007   2.90655
   R10        2.89503   0.00004   0.00027  -0.00013   0.00014   2.89518
   R11        2.81826   0.00004  -0.00013  -0.00053  -0.00065   2.81761
   R12        2.39474   0.00008  -0.00027   0.00031   0.00004   2.39477
   R13        2.90408   0.00003   0.00022  -0.00009   0.00013   2.90421
   R14        2.90648   0.00002   0.00023  -0.00017   0.00007   2.90655
   R15        2.89503   0.00004   0.00028  -0.00013   0.00015   2.89518
   R16        2.08850   0.00014   0.00065  -0.00018   0.00046   2.08896
   R17        2.08490   0.00015   0.00067  -0.00023   0.00044   2.08534
   R18        2.08255   0.00020   0.00079  -0.00016   0.00063   2.08319
   R19        2.08419   0.00018   0.00073  -0.00018   0.00055   2.08475
   R20        2.08121   0.00018   0.00074  -0.00017   0.00057   2.08177
   R21        2.08448   0.00021   0.00080  -0.00023   0.00058   2.08506
   R22        2.08405   0.00017   0.00072  -0.00017   0.00055   2.08460
   R23        2.07829   0.00021   0.00079  -0.00018   0.00061   2.07890
   R24        2.08419   0.00018   0.00073  -0.00018   0.00055   2.08475
   R25        2.08255   0.00020   0.00079  -0.00016   0.00063   2.08319
   R26        2.08121   0.00018   0.00074  -0.00017   0.00057   2.08177
   R27        2.08448   0.00021   0.00080  -0.00023   0.00058   2.08506
   R28        2.07829   0.00021   0.00079  -0.00018   0.00061   2.07890
   R29        2.08405   0.00017   0.00072  -0.00017   0.00055   2.08460
    A1        1.90199  -0.00000  -0.00001   0.00076   0.00075   1.90274
    A2        1.91600  -0.00000  -0.00009  -0.00029  -0.00038   1.91561
    A3        1.93693   0.00001   0.00010  -0.00005   0.00004   1.93697
    A4        1.91600  -0.00000  -0.00009  -0.00029  -0.00038   1.91561
    A5        1.93693   0.00001   0.00010  -0.00005   0.00005   1.93697
    A6        1.85567  -0.00000   0.00000  -0.00011  -0.00011   1.85556
    A7        1.98209   0.00001   0.00005   0.00019   0.00024   1.98233
    A8        1.94043  -0.00000  -0.00002  -0.00035  -0.00037   1.94006
    A9        1.89313  -0.00001  -0.00011   0.00026   0.00015   1.89328
   A10        1.88453   0.00000   0.00008  -0.00011  -0.00002   1.88451
   A11        1.89641  -0.00000  -0.00000   0.00002   0.00001   1.89642
   A12        1.86319   0.00000   0.00000  -0.00001  -0.00001   1.86318
   A13        1.92449   0.00001   0.00012   0.00010   0.00022   1.92471
   A14        1.94438   0.00000  -0.00003  -0.00013  -0.00016   1.94422
   A15        1.90550  -0.00001  -0.00017  -0.00007  -0.00025   1.90525
   A16        1.90408  -0.00001  -0.00008  -0.00008  -0.00016   1.90392
   A17        1.87594   0.00001   0.00009   0.00031   0.00040   1.87634
   A18        1.90812  -0.00000   0.00007  -0.00010  -0.00003   1.90808
   A19        2.16999  -0.00001   0.00018   0.00096   0.00112   2.17111
   A20        2.02671   0.00002   0.00025   0.00071   0.00093   2.02764
   A21        2.02672   0.00002   0.00025   0.00071   0.00093   2.02764
   A22        1.92449   0.00001   0.00012   0.00010   0.00022   1.92471
   A23        1.90408  -0.00001  -0.00008  -0.00008  -0.00016   1.90392
   A24        1.87595   0.00001   0.00009   0.00031   0.00039   1.87634
   A25        1.94438   0.00000  -0.00002  -0.00014  -0.00016   1.94422
   A26        1.90550  -0.00001  -0.00017  -0.00007  -0.00025   1.90525
   A27        1.90812  -0.00000   0.00007  -0.00011  -0.00003   1.90809
   A28        1.98209   0.00001   0.00005   0.00020   0.00024   1.98233
   A29        1.89313  -0.00001  -0.00011   0.00026   0.00015   1.89328
   A30        1.94043  -0.00000  -0.00002  -0.00036  -0.00038   1.94006
   A31        1.89641  -0.00000  -0.00000   0.00002   0.00001   1.89642
   A32        1.88454   0.00000   0.00008  -0.00011  -0.00003   1.88451
   A33        1.86319   0.00000  -0.00000  -0.00001  -0.00001   1.86318
   A34        1.91490  -0.00000   0.00005  -0.00007  -0.00002   1.91488
   A35        1.91636   0.00000   0.00007   0.00008   0.00015   1.91651
   A36        1.96148   0.00000  -0.00005  -0.00009  -0.00014   1.96134
   A37        1.89451   0.00001   0.00002   0.00005   0.00007   1.89457
   A38        1.89228  -0.00000  -0.00007  -0.00004  -0.00011   1.89217
   A39        1.88286  -0.00000  -0.00003   0.00009   0.00005   1.88292
   A40        1.92968  -0.00000  -0.00006   0.00002  -0.00003   1.92965
   A41        1.90772   0.00001   0.00003  -0.00042  -0.00039   1.90733
   A42        1.94160   0.00001   0.00022   0.00060   0.00082   1.94242
   A43        1.89186  -0.00001  -0.00014  -0.00006  -0.00020   1.89166
   A44        1.89418   0.00001   0.00016   0.00002   0.00018   1.89436
   A45        1.89785  -0.00002  -0.00022  -0.00018  -0.00040   1.89745
   A46        1.91636   0.00000   0.00007   0.00009   0.00016   1.91651
   A47        1.91490  -0.00000   0.00005  -0.00007  -0.00002   1.91488
   A48        1.96148   0.00000  -0.00005  -0.00010  -0.00014   1.96134
   A49        1.89450   0.00001   0.00002   0.00005   0.00007   1.89457
   A50        1.88286  -0.00000  -0.00003   0.00009   0.00006   1.88292
   A51        1.89229  -0.00000  -0.00007  -0.00005  -0.00012   1.89217
   A52        1.92968  -0.00000  -0.00005   0.00003  -0.00003   1.92965
   A53        1.94160   0.00001   0.00022   0.00060   0.00082   1.94242
   A54        1.90772   0.00001   0.00003  -0.00042  -0.00039   1.90733
   A55        1.89418   0.00001   0.00016   0.00002   0.00018   1.89436
   A56        1.89186  -0.00001  -0.00014  -0.00006  -0.00020   1.89166
   A57        1.89785  -0.00002  -0.00022  -0.00018  -0.00040   1.89745
    D1        1.03051  -0.00001  -0.00010  -0.00120  -0.00129   1.02922
    D2       -3.12319   0.00000   0.00003  -0.00147  -0.00143  -3.12462
    D3       -1.07968  -0.00000  -0.00004  -0.00153  -0.00157  -1.08125
    D4        3.12943  -0.00001  -0.00027  -0.00126  -0.00154   3.12790
    D5       -1.02427  -0.00000  -0.00014  -0.00153  -0.00168  -1.02594
    D6        1.01924  -0.00001  -0.00022  -0.00159  -0.00181   1.01743
    D7       -1.10751  -0.00002  -0.00027  -0.00161  -0.00188  -1.10940
    D8        1.02197  -0.00001  -0.00014  -0.00188  -0.00202   1.01995
    D9        3.06548  -0.00001  -0.00022  -0.00194  -0.00216   3.06332
   D10       -1.03052   0.00001   0.00010   0.00121   0.00131  -1.02922
   D11        1.07966   0.00000   0.00004   0.00154   0.00159   1.08125
   D12        3.12318  -0.00000  -0.00004   0.00148   0.00145   3.12463
   D13       -3.12945   0.00001   0.00027   0.00127   0.00155  -3.12790
   D14       -1.01926   0.00001   0.00022   0.00161   0.00183  -1.01743
   D15        1.02425   0.00000   0.00014   0.00155   0.00169   1.02594
   D16        1.10750   0.00002   0.00027   0.00163   0.00190   1.10940
   D17       -3.06549   0.00001   0.00022   0.00196   0.00218  -3.06332
   D18       -1.02198   0.00001   0.00014   0.00190   0.00204  -1.01994
   D19       -0.79518   0.00002   0.00036   0.00152   0.00187  -0.79332
   D20        1.32165   0.00002   0.00032   0.00139   0.00170   1.32336
   D21       -2.85242   0.00001   0.00028   0.00112   0.00140  -2.85102
   D22       -2.95541   0.00001   0.00028   0.00192   0.00220  -2.95321
   D23       -0.83857   0.00001   0.00025   0.00179   0.00204  -0.83653
   D24        1.27054   0.00001   0.00021   0.00153   0.00173   1.27227
   D25        1.31316   0.00001   0.00024   0.00198   0.00222   1.31539
   D26       -2.85318   0.00001   0.00021   0.00185   0.00206  -2.85113
   D27       -0.74407   0.00001   0.00017   0.00159   0.00175  -0.74232
   D28        0.61461  -0.00005  -0.00071  -0.00137  -0.00208   0.61253
   D29       -2.90681   0.00008   0.00129   0.00604   0.00733  -2.89947
   D30       -1.52605  -0.00005  -0.00070  -0.00121  -0.00191  -1.52796
   D31        1.23572   0.00008   0.00130   0.00620   0.00750   1.24322
   D32        2.68996  -0.00005  -0.00079  -0.00122  -0.00201   2.68795
   D33       -0.83145   0.00008   0.00120   0.00619   0.00739  -0.82406
   D34        1.18741  -0.00002  -0.00037  -0.00212  -0.00250   1.18491
   D35       -3.01503  -0.00001  -0.00027  -0.00205  -0.00233  -3.01736
   D36       -0.90834  -0.00002  -0.00035  -0.00223  -0.00259  -0.91093
   D37       -2.96709  -0.00001  -0.00030  -0.00214  -0.00244  -2.96953
   D38       -0.88634  -0.00001  -0.00019  -0.00208  -0.00227  -0.88861
   D39        1.22035  -0.00001  -0.00027  -0.00225  -0.00253   1.21782
   D40       -0.92017  -0.00001  -0.00019  -0.00188  -0.00207  -0.92224
   D41        1.16057  -0.00000  -0.00009  -0.00181  -0.00189   1.15868
   D42       -3.01592  -0.00001  -0.00017  -0.00199  -0.00215  -3.01807
   D43        1.10706   0.00002   0.00046   0.00905   0.00951   1.11657
   D44       -3.07015   0.00004   0.00078   0.00948   0.01027  -3.05989
   D45       -0.97414   0.00003   0.00066   0.00937   0.01003  -0.96411
   D46       -0.98045   0.00002   0.00037   0.00879   0.00916  -0.97129
   D47        1.12552   0.00004   0.00068   0.00923   0.00991   1.13544
   D48       -3.06165   0.00003   0.00056   0.00911   0.00967  -3.05198
   D49       -3.04503   0.00002   0.00037   0.00877   0.00914  -3.03588
   D50       -0.93905   0.00004   0.00069   0.00921   0.00989  -0.92916
   D51        1.15696   0.00003   0.00056   0.00909   0.00965   1.16662
   D52       -0.61462   0.00005   0.00071   0.00138   0.00209  -0.61253
   D53        1.52603   0.00005   0.00070   0.00123   0.00193   1.52796
   D54       -2.68998   0.00005   0.00080   0.00123   0.00203  -2.68795
   D55        2.90679  -0.00008  -0.00129  -0.00602  -0.00732   2.89947
   D56       -1.23574  -0.00008  -0.00130  -0.00618  -0.00748  -1.24322
   D57        0.83143  -0.00008  -0.00120  -0.00617  -0.00738   0.82406
   D58        0.79521  -0.00002  -0.00035  -0.00154  -0.00189   0.79331
   D59       -1.31314  -0.00001  -0.00024  -0.00201  -0.00225  -1.31539
   D60        2.95544  -0.00001  -0.00028  -0.00195  -0.00223   2.95321
   D61       -1.32162  -0.00002  -0.00032  -0.00142  -0.00174  -1.32336
   D62        2.85322  -0.00001  -0.00021  -0.00189  -0.00210   2.85112
   D63        0.83861  -0.00001  -0.00025  -0.00183  -0.00208   0.83653
   D64        2.85245  -0.00001  -0.00028  -0.00115  -0.00144   2.85102
   D65        0.74411  -0.00001  -0.00017  -0.00162  -0.00179   0.74232
   D66       -1.27050  -0.00001  -0.00021  -0.00156  -0.00177  -1.27228
   D67        0.88654   0.00001   0.00018   0.00186   0.00204   0.88859
   D68        2.96730   0.00001   0.00028   0.00192   0.00221   2.96950
   D69       -1.22013   0.00001   0.00026   0.00203   0.00229  -1.21784
   D70        3.01523   0.00001   0.00026   0.00185   0.00211   3.01734
   D71       -1.18721   0.00002   0.00036   0.00191   0.00228  -1.18493
   D72        0.90855   0.00002   0.00034   0.00202   0.00236   0.91091
   D73       -1.16038   0.00000   0.00008   0.00160   0.00168  -1.15870
   D74        0.92037   0.00001   0.00018   0.00166   0.00184   0.92222
   D75        3.01613   0.00001   0.00016   0.00177   0.00192   3.01805
   D76        0.98057  -0.00002  -0.00037  -0.00891  -0.00928   0.97129
   D77        3.06177  -0.00003  -0.00057  -0.00923  -0.00979   3.05197
   D78       -1.12541  -0.00004  -0.00069  -0.00934  -0.01003  -1.13544
   D79       -1.10694  -0.00002  -0.00047  -0.00917  -0.00963  -1.11658
   D80        0.97425  -0.00003  -0.00066  -0.00949  -0.01015   0.96411
   D81        3.07026  -0.00004  -0.00078  -0.00960  -0.01038   3.05988
   D82        3.04514  -0.00002  -0.00038  -0.00888  -0.00926   3.03588
   D83       -1.15685  -0.00003  -0.00057  -0.00920  -0.00977  -1.16662
   D84        0.93916  -0.00004  -0.00069  -0.00932  -0.01001   0.92915
         Item               Value     Threshold  Converged?
 Maximum Force            0.000214     0.000450     YES
 RMS     Force            0.000063     0.000300     YES
 Maximum Displacement     0.016839     0.001800     NO 
 RMS     Displacement     0.003997     0.001200     NO 
 Predicted change in Energy=-5.818294D-06
 Lowest energy point so far.  Saving SCF results.
 Step   2 in ReCalcFC=50 IGetFC= 0 compute gradient.
 GradGradGradGradGradGradGradGradGradGradGradGradGradGradGradGradGradGrad

 Leave Link  103 at Wed Feb 28 21:01:12 2024, MaxMem=  2147483648 cpu:               2.8 elap:               0.2
 (Enter /software/gaussian-16RevA.03-el7-x86_64/g16/l202.exe)
                          Input orientation:                          
 ---------------------------------------------------------------------
 Center     Atomic      Atomic             Coordinates (Angstroms)
 Number     Number       Type             X           Y           Z
 ---------------------------------------------------------------------
      1          6           0        0.000056    2.118643   -0.000769
      2          6           0       -1.239837    1.384895   -0.493950
      3          6           0       -1.318878   -0.075252   -0.021076
      4          7           0        0.000007   -0.747830   -0.198002
      5          6           0        1.318911   -0.075300   -0.021033
      6          6           0        1.239939    1.384850   -0.493909
      7          6           0        1.734746   -0.164689    1.457067
      8          6           0        2.339135   -0.827994   -0.881152
      9          8           0       -0.000017   -2.011657   -0.104799
     10          6           0       -1.734764   -0.164624    1.457011
     11          6           0       -2.339104   -0.827908   -0.881226
     12          1           0        0.000081    3.151734   -0.386773
     13          1           0        0.000039    2.198967    1.100347
     14          1           0       -2.161516    1.898090   -0.170102
     15          1           0       -1.238840    1.399077   -1.599290
     16          1           0        1.238981    1.399033   -1.599249
     17          1           0        2.161626    1.898011   -0.170028
     18          1           0        1.659381   -1.208967    1.802078
     19          1           0        2.780152    0.168386    1.572119
     20          1           0        1.106047    0.463173    2.108304
     21          1           0        2.004633   -0.869566   -1.931768
     22          1           0        3.306739   -0.299504   -0.844763
     23          1           0        2.484953   -1.856686   -0.519537
     24          1           0       -2.780154    0.168512    1.572031
     25          1           0       -1.659472   -1.208908    1.802020
     26          1           0       -1.106049    0.463198    2.108270
     27          1           0       -2.004576   -0.869487   -1.931833
     28          1           0       -2.484967   -1.856596   -0.519618
     29          1           0       -3.306691   -0.299387   -0.844861
 ---------------------------------------------------------------------
                    Distance matrix (angstroms):
                    1          2          3          4          5
     1  C    0.000000
     2  C    1.522809   0.000000
     3  C    2.559917   1.536844   0.000000
     4  N    2.873250   2.484616   1.491013   0.000000
     5  C    2.559917   2.983792   2.637789   1.491014   0.000000
     6  C    1.522809   2.479776   2.983792   2.484616   1.536844
     7  C    3.216837   3.880184   3.393748   2.467514   1.538080
     8  C    3.863810   4.225618   3.832416   2.438164   1.532061
     9  O    4.131609   3.636641   2.344369   1.267259   2.344369
    10  C    3.216835   2.540121   1.538080   2.467514   3.393748
    11  C    3.863811   2.500974   1.532061   2.438165   3.832417
    12  H    1.102850   2.161158   3.505257   3.904130   3.505257
    13  H    1.104041   2.177565   2.858182   3.220143   2.858182
    14  H    2.179383   1.103512   2.150889   3.416702   4.003731
    15  H    2.146604   1.105431   2.161206   2.847377   3.347652
    16  H    2.146605   2.714116   3.347654   2.847380   2.161206
    17  H    2.179383   3.455165   4.003731   3.416702   2.150889
    18  H    4.132385   4.517226   3.671407   2.639411   2.173673
    19  H    3.742514   4.680689   4.404506   3.420817   2.175487
    20  H    2.900342   3.622772   3.271762   2.830000   2.206658
    21  H    4.083684   4.204343   3.915023   2.653166   2.179904
    22  H    4.182572   4.861237   4.703730   3.399084   2.163391
    23  H    4.716680   4.937871   4.229788   2.740056   2.186663
    24  H    3.742496   2.849639   2.175486   3.420818   4.404501
    25  H    4.132393   3.489325   2.173674   2.639422   3.671424
    26  H    2.900347   2.763870   2.206658   2.829989   3.271749
    27  H    4.083684   2.781110   2.179905   2.653172   3.915029
    28  H    4.716680   3.472502   2.186663   2.740053   4.229786
    29  H    4.182575   2.689206   2.163391   3.399085   4.703733
                    6          7          8          9         10
     6  C    0.000000
     7  C    2.540121   0.000000
     8  C    2.500973   2.504502   0.000000
     9  O    3.636641   2.976595   2.734121   0.000000
    10  C    3.880183   3.469510   4.743809   2.976596   0.000000
    11  C    4.225620   4.743810   4.678239   2.734123   2.504501
    12  H    2.161158   4.172226   4.642609   5.171084   4.172225
    13  H    2.177565   2.953528   4.308155   4.379695   2.953526
    14  H    3.455165   4.699318   5.309707   4.467937   2.661654
    15  H    2.714115   4.541905   4.275216   3.924448   3.468729
    16  H    1.105431   3.468729   2.585663   3.924449   4.541906
    17  H    1.103512   2.661653   2.822819   4.467936   4.699316
    18  H    3.489323   1.102374   2.794088   2.652186   3.567905
    19  H    2.849651   1.103200   2.684364   3.910752   4.528644
    20  H    2.763861   1.101627   3.482020   3.499427   2.981362
    21  H    2.781113   3.471872   1.103364   2.942926   5.095474
    22  H    2.689202   2.790655   1.103124   3.796531   5.543745
    23  H    3.472502   2.707882   1.100107   2.524104   4.957402
    24  H    4.680677   4.528638   5.763528   3.910762   1.103200
    25  H    4.517240   3.567927   4.830462   2.652197   1.102375
    26  H    3.622767   2.981345   4.740581   3.499412   1.101627
    27  H    4.204348   5.095479   4.469169   2.942934   3.471872
    28  H    4.937870   4.957400   4.945775   2.524102   2.707884
    29  H    4.861242   5.543745   5.670635   3.796532   2.790650
                   11         12         13         14         15
    11  C    0.000000
    12  H    4.642609   0.000000
    13  H    4.308154   1.766152   0.000000
    14  H    2.822818   2.508201   2.525250   0.000000
    15  H    2.585664   2.465143   3.076148   1.772829   0.000000
    16  H    4.275221   2.465143   3.076148   3.722217   2.477821
    17  H    5.309709   2.508202   2.525249   4.323142   3.722216
    18  H    4.830446   5.153645   3.854849   5.304955   5.174059
    19  H    5.763531   4.523983   3.474889   5.517906   5.265428
    20  H    4.740596   3.831048   2.291771   4.234039   4.485607
    21  H    4.469164   4.751430   4.756891   5.302847   3.972077
    22  H    5.670633   4.801539   4.578217   5.931812   4.910883
    23  H    4.945779   5.592538   5.024653   5.984156   5.062854
    24  H    2.684372   4.523963   3.474868   2.531636   3.734597
    25  H    2.794078   5.153653   3.854859   3.714128   4.306672
    26  H    3.482021   3.831057   2.291775   2.892042   3.826161
    27  H    1.103364   4.751429   4.756890   3.284480   2.417296
    28  H    1.100107   5.592538   5.024652   3.784765   3.649374
    29  H    1.103124   4.801544   4.578217   2.568195   2.780279
                   16         17         18         19         20
    16  H    0.000000
    17  H    1.772829   0.000000
    18  H    4.306672   3.714130   0.000000
    19  H    3.734605   2.531650   1.790562   0.000000
    20  H    3.826154   2.892024   1.787738   1.782420   0.000000
    21  H    2.417299   3.284487   3.765102   3.735773   4.348084
    22  H    2.780270   2.568194   3.247564   2.517446   3.761027
    23  H    3.649374   3.784764   2.547745   2.926274   3.766786
    24  H    5.265420   5.517891   4.654014   5.560306   3.934079
    25  H    5.174071   5.304970   3.318853   4.654036   3.246192
    26  H    4.485605   4.234032   3.246150   3.934072   2.212096
    27  H    3.972084   5.302852   5.242319   6.020671   5.270168
    28  H    5.062856   5.984155   4.794300   6.016427   5.018235
    29  H    4.910893   5.931816   5.700482   6.565841   5.364228
                   21         22         23         24         25
    21  H    0.000000
    22  H    1.789422   0.000000
    23  H    1.788717   1.790508   0.000000
    24  H    6.020665   6.565836   6.016431   0.000000
    25  H    5.242327   5.700502   4.794320   1.790561   0.000000
    26  H    5.270153   5.364216   5.018219   1.782420   1.787738
    27  H    4.009209   5.451299   4.808847   3.735777   3.765098
    28  H    4.808836   6.006172   4.969920   2.926294   2.547733
    29  H    5.451297   6.613430   6.006177   2.517447   3.247543
                   26         27         28         29
    26  H    0.000000
    27  H    4.348084   0.000000
    28  H    3.766784   1.788717   0.000000
    29  H    3.761030   1.789422   1.790507   0.000000
 Symmetry turned off by external request.
 Stoichiometry    C9H18NO(2)
 Framework group  C1[X(C9H18NO)]
 Deg. of freedom    81
 Full point group                 C1      NOp   1
 Rotational constants (GHZ):           1.4843997           1.0670720           0.8586081
 Leave Link  202 at Wed Feb 28 21:01:12 2024, MaxMem=  2147483648 cpu:               0.8 elap:               0.1
 (Enter /software/gaussian-16RevA.03-el7-x86_64/g16/l301.exe)
 Standard basis: def2SVPP (5D, 7F)
 Ernie: Thresh=  0.10000D-02 Tol=  0.10000D-05 Strict=F.
   190 basis functions,   347 primitive gaussians,   201 cartesian basis functions
    44 alpha electrons       43 beta electrons
       nuclear repulsion energy       716.3921366079 Hartrees.
 IExCor= 4639 DFT=T Ex+Corr=wB97XD ExCW=0 ScaHFX=  1.000000
 ScaDFX=  1.000000  1.000000  1.000000  1.000000 ScalE2=  1.000000  1.000000
 IRadAn=      5 IRanWt=     -1 IRanGd=            0 ICorTp=0 IEmpDi=121
 HFx  wShort=  0.000000 wLong=  0.200000 cFull=  0.222036 cShort=  0.000000 cLong=  0.777964
 DFx  wShort=  0.000000 wLong=  0.200000 cFull=  0.000000 cShort=  0.000000 cLong=  1.000000
 NAtoms=   29 NActive=   29 NUniq=   29 SFac= 1.00D+00 NAtFMM=   60 NAOKFM=F Big=F
 Integral buffers will be    131072 words long.
 Raffenetti 2 integral format.
 Two-electron integral symmetry is turned off.
 R6Disp:  Grimme-D2 Dispersion energy=       -0.0257197677 Hartrees.
 Nuclear repulsion after empirical dispersion term =      716.3664168402 Hartrees.
 Force inversion solution in PCM.
 ------------------------------------------------------------------------------
 Polarizable Continuum Model (PCM)
 =================================
 Model                : PCM.
 Atomic radii         : UFF (Universal Force Field).
 Polarization charges : Total charges.
 Charge compensation  : None.
 Solution method      : Matrix inversion.
 Cavity type          : Scaled VdW (van der Waals Surface) (Alpha=1.100).
 Cavity algorithm     : GePol (No added spheres)
                        Default sphere list used, NSphG=   29.
                        Lebedev-Laikov grids with approx.  5.0 points / Ang**2.
                        Smoothing algorithm: York/Karplus (Gamma=1.0000).
                        Polarization charges: spherical gaussians, with
                                              point-specific exponents (IZeta= 3).
                        Self-potential: point-specific (ISelfS= 7).
                        Self-field    : sphere-specific E.n sum rule (ISelfD= 2).
 1st derivatives      : Analytical E(r).r(x)/FMM algorithm (CHGder, D1EAlg=3).
                        Cavity 1st derivative terms included.
 Solvent              : n,n-DiMethylFormamide, Eps=  37.219000 Eps(inf)=   2.046330
 ------------------------------------------------------------------------------
 GePol: Number of generator spheres                  =      29
 GePol: Total number of spheres                      =      29
 GePol: Number of exposed spheres                    =      29 (100.00%)
 GePol: Number of points                             =    1753
 GePol: Average weight of points                     =       0.13
 GePol: Minimum weight of points                     =   0.12D-09
 GePol: Maximum weight of points                     =    0.20577
 GePol: Number of points with low weight             =     100
 GePol: Fraction of low-weight points (<1% of avg)   =       5.70%
 GePol: Cavity surface area                          =    236.635 Ang**2
 GePol: Cavity volume                                =    256.595 Ang**3
 Leave Link  301 at Wed Feb 28 21:01:12 2024, MaxMem=  2147483648 cpu:               2.2 elap:               0.1
 (Enter /software/gaussian-16RevA.03-el7-x86_64/g16/l302.exe)
 NPDir=0 NMtPBC=     1 NCelOv=     1 NCel=       1 NClECP=     1 NCelD=      1
         NCelK=      1 NCelE2=     1 NClLst=     1 CellRange=     0.0.
 One-electron integrals computed using PRISM.
   1 Symmetry operations used in ECPInt.
 ECPInt:  NShTT=    5253 NPrTT=   21107 LenC2=    5228 LenP2D=   16397.
 LDataN:  DoStor=T MaxTD1= 4 Len=   56
 NBasis=   190 RedAO= T EigKep=  1.01D-03  NBF=   190
 NBsUse=   190 1.00D-06 EigRej= -1.00D+00 NBFU=   190
 Precomputing XC quadrature grid using
 IXCGrd= 4 IRadAn=           5 IRanWt=          -1 IRanGd=           0 AccXCQ= 0.00D+00.
 Generated NRdTot=       0 NPtTot=           0 NUsed=           0 NTot=          32
 NSgBfM=   201   201   201   201   201 MxSgAt=    29 MxSgA2=    29.
 Leave Link  302 at Wed Feb 28 21:01:13 2024, MaxMem=  2147483648 cpu:               7.6 elap:               0.3
 (Enter /software/gaussian-16RevA.03-el7-x86_64/g16/l303.exe)
 DipDrv:  MaxL=1.
 Leave Link  303 at Wed Feb 28 21:01:13 2024, MaxMem=  2147483648 cpu:               2.1 elap:               0.1
 (Enter /software/gaussian-16RevA.03-el7-x86_64/g16/l401.exe)
 Initial guess from the checkpoint file:  "TEMPO-cavity-in-DMF-wB97XD.chk"
 B after Tr=     0.000001   -0.000097   -0.000411
         Rot=    1.000000   -0.000263    0.000001   -0.000001 Ang=  -0.03 deg.
 Guess basis will be translated and rotated to current coordinates.
 JPrj=2 DoOrth=T DoCkMO=T.
 Initial guess <Sx>= 0.0000 <Sy>= 0.0000 <Sz>= 0.5000 <S**2>= 0.7539 S= 0.5020
 Leave Link  401 at Wed Feb 28 21:01:13 2024, MaxMem=  2147483648 cpu:               3.9 elap:               0.2
 (Enter /software/gaussian-16RevA.03-el7-x86_64/g16/l502.exe)
 Two-electron integral symmetry not used.
 UHF open shell SCF:
 Using DIIS extrapolation, IDIIS=  1040.
 NGot=  2147483648 LenX=  2147395142 LenY=  2147354300
 Requested convergence on RMS density matrix=1.00D-08 within  32 cycles.
 Requested convergence on MAX density matrix=1.00D-06.
 Requested convergence on             energy=1.00D-06.
 No special actions if energy rises.
 Fock matrices will be formed incrementally for  20 cycles.

 Cycle   1  Pass 1  IDiag  1:
 FoFJK:  IHMeth= 1 ICntrl=       0 DoSepK=T KAlg= 0 I1Cent=           0 FoldK=F
 IRaf=         1 NMat=       1 IRICut=       1 DoRegI=T DoRafI=F ISym2E= 0 IDoP0=0 IntGTp=1.
 FoFCou: FMM=F IPFlag=           0 FMFlag=      100000 FMFlg1=           0
         NFxFlg=           0 DoJE=T BraDBF=F KetDBF=F FulRan=T
         wScrn=  0.000000 ICntrl=       500 IOpCl=  0 I1Cent=           0 NGrid=           0
         NMat0=    1 NMatS0=      1 NMatT0=    0 NMatD0=    1 NMtDS0=    0 NMtDT0=    0
 Symmetry not used in FoFCou.
 Inv3:  Mode=1 IEnd=     9219027.
 Iteration    1 A*A^-1 deviation from unit magnitude is 3.11D-15 for    732.
 Iteration    1 A*A^-1 deviation from orthogonality  is 2.66D-15 for   1615     78.
 Iteration    1 A^-1*A deviation from unit magnitude is 3.11D-15 for    732.
 Iteration    1 A^-1*A deviation from orthogonality  is 1.97D-15 for   1405    956.
 E= -483.205894253211    
 DIIS: error= 4.62D-04 at cycle   1 NSaved=   1.
 NSaved= 1 IEnMin= 1 EnMin= -483.205894253211     IErMin= 1 ErrMin= 4.62D-04
 ErrMax= 4.62D-04  0.00D+00 EMaxC= 1.00D-01 BMatC= 1.52D-04 BMatP= 1.52D-04
 IDIUse=3 WtCom= 9.95D-01 WtEn= 4.62D-03
 Coeff-Com:  0.100D+01
 Coeff-En:   0.100D+01
 Coeff:      0.100D+01
 Gap=     0.658 Goal=   None    Shift=    0.000
 Gap=     0.711 Goal=   None    Shift=    0.000
 RMSDP=5.17D-05 MaxDP=1.44D-03              OVMax= 1.74D-03

 Cycle   2  Pass 1  IDiag  1:
 RMSU=  5.16D-05    CP:  1.00D+00
 E= -483.205965107260     Delta-E=       -0.000070854049 Rises=F Damp=F
 DIIS: error= 1.17D-04 at cycle   2 NSaved=   2.
 NSaved= 2 IEnMin= 2 EnMin= -483.205965107260     IErMin= 2 ErrMin= 1.17D-04
 ErrMax= 1.17D-04  0.00D+00 EMaxC= 1.00D-01 BMatC= 7.86D-06 BMatP= 1.52D-04
 IDIUse=3 WtCom= 9.99D-01 WtEn= 1.17D-03
 Coeff-Com: -0.218D+00 0.122D+01
 Coeff-En:   0.000D+00 0.100D+01
 Coeff:     -0.218D+00 0.122D+01
 Gap=     0.401 Goal=   None    Shift=    0.000
 Gap=     0.353 Goal=   None    Shift=    0.000
 RMSDP=1.92D-05 MaxDP=7.24D-04 DE=-7.09D-05 OVMax= 6.78D-04

 Cycle   3  Pass 1  IDiag  1:
 RMSU=  1.13D-05    CP:  1.00D+00  1.30D+00
 E= -483.205970125338     Delta-E=       -0.000005018078 Rises=F Damp=F
 DIIS: error= 6.58D-05 at cycle   3 NSaved=   3.
 NSaved= 3 IEnMin= 3 EnMin= -483.205970125338     IErMin= 3 ErrMin= 6.58D-05
 ErrMax= 6.58D-05  0.00D+00 EMaxC= 1.00D-01 BMatC= 1.80D-06 BMatP= 7.86D-06
 IDIUse=1 WtCom= 1.00D+00 WtEn= 0.00D+00
 Coeff-Com: -0.106D+00 0.497D+00 0.609D+00
 Coeff:     -0.106D+00 0.497D+00 0.609D+00
 Gap=     0.401 Goal=   None    Shift=    0.000
 Gap=     0.352 Goal=   None    Shift=    0.000
 RMSDP=4.50D-06 MaxDP=1.53D-04 DE=-5.02D-06 OVMax= 1.54D-04

 Cycle   4  Pass 1  IDiag  1:
 RMSU=  4.32D-06    CP:  1.00D+00  1.32D+00  1.04D+00
 E= -483.205970508297     Delta-E=       -0.000000382959 Rises=F Damp=F
 DIIS: error= 3.09D-05 at cycle   4 NSaved=   4.
 NSaved= 4 IEnMin= 4 EnMin= -483.205970508297     IErMin= 4 ErrMin= 3.09D-05
 ErrMax= 3.09D-05  0.00D+00 EMaxC= 1.00D-01 BMatC= 3.17D-07 BMatP= 1.80D-06
 IDIUse=1 WtCom= 1.00D+00 WtEn= 0.00D+00
 Coeff-Com:  0.918D-02-0.956D-01 0.250D+00 0.837D+00
 Coeff:      0.918D-02-0.956D-01 0.250D+00 0.837D+00
 Gap=     0.401 Goal=   None    Shift=    0.000
 Gap=     0.353 Goal=   None    Shift=    0.000
 RMSDP=2.61D-06 MaxDP=8.81D-05 DE=-3.83D-07 OVMax= 1.48D-04

 Cycle   5  Pass 1  IDiag  1:
 RMSU=  1.47D-06    CP:  1.00D+00  1.34D+00  1.21D+00  9.56D-01
 E= -483.205970617248     Delta-E=       -0.000000108951 Rises=F Damp=F
 DIIS: error= 1.26D-05 at cycle   5 NSaved=   5.
 NSaved= 5 IEnMin= 5 EnMin= -483.205970617248     IErMin= 5 ErrMin= 1.26D-05
 ErrMax= 1.26D-05  0.00D+00 EMaxC= 1.00D-01 BMatC= 4.59D-08 BMatP= 3.17D-07
 IDIUse=1 WtCom= 1.00D+00 WtEn= 0.00D+00
 Coeff-Com:  0.158D-01-0.942D-01 0.173D-01 0.336D+00 0.725D+00
 Coeff:      0.158D-01-0.942D-01 0.173D-01 0.336D+00 0.725D+00
 Gap=     0.401 Goal=   None    Shift=    0.000
 Gap=     0.353 Goal=   None    Shift=    0.000
 RMSDP=9.73D-07 MaxDP=3.55D-05 DE=-1.09D-07 OVMax= 5.30D-05

 Cycle   6  Pass 1  IDiag  1:
 RMSU=  6.36D-07    CP:  1.00D+00  1.34D+00  1.26D+00  1.07D+00  9.50D-01
 E= -483.205970636462     Delta-E=       -0.000000019214 Rises=F Damp=F
 DIIS: error= 6.65D-06 at cycle   6 NSaved=   6.
 NSaved= 6 IEnMin= 6 EnMin= -483.205970636462     IErMin= 6 ErrMin= 6.65D-06
 ErrMax= 6.65D-06  0.00D+00 EMaxC= 1.00D-01 BMatC= 4.03D-09 BMatP= 4.59D-08
 IDIUse=1 WtCom= 1.00D+00 WtEn= 0.00D+00
 Coeff-Com: -0.389D-02 0.327D-01-0.617D-01-0.211D+00-0.125D+00 0.137D+01
 Coeff:     -0.389D-02 0.327D-01-0.617D-01-0.211D+00-0.125D+00 0.137D+01
 Gap=     0.401 Goal=   None    Shift=    0.000
 Gap=     0.353 Goal=   None    Shift=    0.000
 RMSDP=6.42D-07 MaxDP=3.26D-05 DE=-1.92D-08 OVMax= 4.57D-05

 Cycle   7  Pass 1  IDiag  1:
 RMSU=  1.75D-07    CP:  1.00D+00  1.34D+00  1.28D+00  1.12D+00  1.22D+00
                    CP:  1.58D+00
 E= -483.205970641235     Delta-E=       -0.000000004773 Rises=F Damp=F
 DIIS: error= 1.29D-06 at cycle   7 NSaved=   7.
 NSaved= 7 IEnMin= 7 EnMin= -483.205970641235     IErMin= 7 ErrMin= 1.29D-06
 ErrMax= 1.29D-06  0.00D+00 EMaxC= 1.00D-01 BMatC= 2.30D-10 BMatP= 4.03D-09
 IDIUse=1 WtCom= 1.00D+00 WtEn= 0.00D+00
 Coeff-Com: -0.132D-02 0.823D-02-0.519D-02-0.277D-01-0.650D-01 0.578D-01
 Coeff-Com:  0.103D+01
 Coeff:     -0.132D-02 0.823D-02-0.519D-02-0.277D-01-0.650D-01 0.578D-01
 Coeff:      0.103D+01
 Gap=     0.401 Goal=   None    Shift=    0.000
 Gap=     0.353 Goal=   None    Shift=    0.000
 RMSDP=1.33D-07 MaxDP=5.81D-06 DE=-4.77D-09 OVMax= 8.61D-06

 Cycle   8  Pass 1  IDiag  1:
 RMSU=  5.46D-08    CP:  1.00D+00  1.34D+00  1.28D+00  1.13D+00  1.25D+00
                    CP:  1.73D+00  1.23D+00
 E= -483.205970641426     Delta-E=       -0.000000000191 Rises=F Damp=F
 DIIS: error= 3.00D-07 at cycle   8 NSaved=   8.
 NSaved= 8 IEnMin= 8 EnMin= -483.205970641426     IErMin= 8 ErrMin= 3.00D-07
 ErrMax= 3.00D-07  0.00D+00 EMaxC= 1.00D-01 BMatC= 4.08D-11 BMatP= 2.30D-10
 IDIUse=1 WtCom= 1.00D+00 WtEn= 0.00D+00
 Coeff-Com: -0.477D-04-0.371D-03 0.299D-02 0.111D-01-0.975D-02-0.951D-01
 Coeff-Com:  0.266D+00 0.825D+00
 Coeff:     -0.477D-04-0.371D-03 0.299D-02 0.111D-01-0.975D-02-0.951D-01
 Coeff:      0.266D+00 0.825D+00
 Gap=     0.401 Goal=   None    Shift=    0.000
 Gap=     0.353 Goal=   None    Shift=    0.000
 RMSDP=3.56D-08 MaxDP=1.20D-06 DE=-1.91D-10 OVMax= 2.85D-06

 Cycle   9  Pass 1  IDiag  1:
 RMSU=  2.12D-08    CP:  1.00D+00  1.34D+00  1.28D+00  1.13D+00  1.25D+00
                    CP:  1.75D+00  1.34D+00  1.07D+00
 E= -483.205970641446     Delta-E=       -0.000000000020 Rises=F Damp=F
 DIIS: error= 1.61D-07 at cycle   9 NSaved=   9.
 NSaved= 9 IEnMin= 9 EnMin= -483.205970641446     IErMin= 9 ErrMin= 1.61D-07
 ErrMax= 1.61D-07  0.00D+00 EMaxC= 1.00D-01 BMatC= 9.15D-12 BMatP= 4.08D-11
 IDIUse=1 WtCom= 1.00D+00 WtEn= 0.00D+00
 Coeff-Com:  0.156D-03-0.116D-02 0.114D-02 0.791D-02 0.425D-02-0.356D-01
 Coeff-Com: -0.652D-01 0.261D+00 0.827D+00
 Coeff:      0.156D-03-0.116D-02 0.114D-02 0.791D-02 0.425D-02-0.356D-01
 Coeff:     -0.652D-01 0.261D+00 0.827D+00
 Gap=     0.401 Goal=   None    Shift=    0.000
 Gap=     0.353 Goal=   None    Shift=    0.000
 RMSDP=1.75D-08 MaxDP=7.79D-07 DE=-2.02D-11 OVMax= 1.32D-06

 Cycle  10  Pass 1  IDiag  1:
 RMSU=  9.38D-09    CP:  1.00D+00  1.34D+00  1.27D+00  1.13D+00  1.25D+00
                    CP:  1.76D+00  1.38D+00  1.24D+00  1.10D+00
 E= -483.205970641451     Delta-E=       -0.000000000005 Rises=F Damp=F
 DIIS: error= 7.03D-08 at cycle  10 NSaved=  10.
 NSaved=10 IEnMin=10 EnMin= -483.205970641451     IErMin=10 ErrMin= 7.03D-08
 ErrMax= 7.03D-08  0.00D+00 EMaxC= 1.00D-01 BMatC= 1.75D-12 BMatP= 9.15D-12
 IDIUse=1 WtCom= 1.00D+00 WtEn= 0.00D+00
 Coeff-Com: -0.325D-04 0.399D-03-0.138D-02-0.338D-02-0.583D-03 0.314D-01
 Coeff-Com: -0.415D-01-0.226D+00-0.190D+00 0.143D+01
 Coeff:     -0.325D-04 0.399D-03-0.138D-02-0.338D-02-0.583D-03 0.314D-01
 Coeff:     -0.415D-01-0.226D+00-0.190D+00 0.143D+01
 Gap=     0.401 Goal=   None    Shift=    0.000
 Gap=     0.353 Goal=   None    Shift=    0.000
 RMSDP=1.31D-08 MaxDP=7.05D-07 DE=-4.89D-12 OVMax= 1.23D-06

 Cycle  11  Pass 1  IDiag  1:
 RMSU=  3.56D-09    CP:  1.00D+00  1.34D+00  1.27D+00  1.13D+00  1.25D+00
                    CP:  1.76D+00  1.39D+00  1.36D+00  1.44D+00  1.64D+00
 E= -483.205970641451     Delta-E=       -0.000000000000 Rises=F Damp=F
 DIIS: error= 2.54D-08 at cycle  11 NSaved=  11.
 NSaved=11 IEnMin=11 EnMin= -483.205970641451     IErMin=11 ErrMin= 2.54D-08
 ErrMax= 2.54D-08  0.00D+00 EMaxC= 1.00D-01 BMatC= 2.10D-13 BMatP= 1.75D-12
 IDIUse=1 WtCom= 1.00D+00 WtEn= 0.00D+00
 Coeff-Com: -0.281D-04 0.233D-03-0.484D-03-0.148D-02-0.105D-02 0.104D-01
 Coeff-Com:  0.307D-02-0.744D-01-0.148D+00 0.207D+00 0.100D+01
 Coeff:     -0.281D-04 0.233D-03-0.484D-03-0.148D-02-0.105D-02 0.104D-01
 Coeff:      0.307D-02-0.744D-01-0.148D+00 0.207D+00 0.100D+01
 Gap=     0.401 Goal=   None    Shift=    0.000
 Gap=     0.353 Goal=   None    Shift=    0.000
 RMSDP=4.26D-09 MaxDP=2.19D-07 DE=-4.55D-13 OVMax= 3.97D-07

 Error on total polarization charges =  0.00923
 SCF Done:  E(UwB97XD) =  -483.205970641     A.U. after   11 cycles
            NFock= 11  Conv=0.43D-08     -V/T= 2.0105
 <Sx>= 0.0000 <Sy>= 0.0000 <Sz>= 0.5000 <S**2>= 0.7539 S= 0.5020
 <L.S>=  0.00000000000    
 KE= 4.781657044286D+02 PE=-2.553669479255D+03 EE= 8.759313873447D+02
 Annihilation of the first spin contaminant:
 S**2 before annihilation     0.7539,   after     0.7500
 Leave Link  502 at Wed Feb 28 21:01:31 2024, MaxMem=  2147483648 cpu:             495.0 elap:              18.0
 (Enter /software/gaussian-16RevA.03-el7-x86_64/g16/l508.exe)
 QCSCF skips out because SCF is already converged.
 Leave Link  508 at Wed Feb 28 21:01:31 2024, MaxMem=  2147483648 cpu:               0.1 elap:               0.0
 (Enter /software/gaussian-16RevA.03-el7-x86_64/g16/l801.exe)
 DoSCS=F DFT=T ScalE2(SS,OS)=  1.000000  1.000000
 Range of M.O.s used for correlation:     1   190
 NBasis=   190 NAE=    44 NBE=    43 NFC=     0 NFV=     0
 NROrb=    190 NOA=    44 NOB=    43 NVA=   146 NVB=   147
 Leave Link  801 at Wed Feb 28 21:01:31 2024, MaxMem=  2147483648 cpu:               1.4 elap:               0.1
 (Enter /software/gaussian-16RevA.03-el7-x86_64/g16/l1101.exe)
 Leave Link 1101 at Wed Feb 28 21:01:31 2024, MaxMem=  2147483648 cpu:               0.9 elap:               0.1
 (Enter /software/gaussian-16RevA.03-el7-x86_64/g16/l1102.exe)
 Symmetrizing basis deriv contribution to polar:
 IMax=3 JMax=2 DiffMx= 0.00D+00
 Leave Link 1102 at Wed Feb 28 21:01:31 2024, MaxMem=  2147483648 cpu:               3.5 elap:               0.2
 (Enter /software/gaussian-16RevA.03-el7-x86_64/g16/l1110.exe)
 Leave Link 1110 at Wed Feb 28 21:01:31 2024, MaxMem=  2147483648 cpu:               0.5 elap:               0.0
 (Enter /software/gaussian-16RevA.03-el7-x86_64/g16/l1002.exe)
 Minotr:  UHF open shell wavefunction.
 Leave Link 1002 at Wed Feb 28 21:01:32 2024, MaxMem=  2147483648 cpu:               2.0 elap:               0.1
 (Enter /software/gaussian-16RevA.03-el7-x86_64/g16/l701.exe)
 ... and contract with generalized density number  0.
 Compute integral first derivatives.
 R6Disp: Adding Grimme-D2 dispersion energy 1st derivatives to the gradient.
   1 Symmetry operations used in ECPInt.
 ECPInt:  NShTT=    5253 NPrTT=   21107 LenC2=    5228 LenP2D=   16397.
 LDataN:  DoStor=T MaxTD1= 5 Len=  102
 D1PCM: PCM CHGder 1st derivatives, ID1Alg=3 FixD1E=F DoIter=F DoCFld=F I1PDM=0.
 GePol: Maximum number of non-zero 1st derivatives   =     166
 Leave Link  701 at Wed Feb 28 21:01:32 2024, MaxMem=  2147483648 cpu:              20.7 elap:               0.8
 (Enter /software/gaussian-16RevA.03-el7-x86_64/g16/l702.exe)
 L702 exits ... SP integral derivatives will be done elsewhere.
 Leave Link  702 at Wed Feb 28 21:01:32 2024, MaxMem=  2147483648 cpu:               1.7 elap:               0.1
 (Enter /software/gaussian-16RevA.03-el7-x86_64/g16/l703.exe)
 Integral derivatives from FoFJK, PRISM(SPDF).
 Compute integral first derivatives, UseDBF=F ICtDFT=           0.
 Calling FoFJK, ICntrl=      2127 FMM=F ISym2X=0 I1Cent= 0 IOpClX= 1 NMat=1 NMatS=1 NMatT=0.
 FoFJK:  IHMeth= 1 ICntrl=    2127 DoSepK=T KAlg= 0 I1Cent=           0 FoldK=F
 IRaf=         1 NMat=       1 IRICut=       1 DoRegI=T DoRafI=F ISym2E= 0 IDoP0=0 IntGTp=1.
 FoFCou: FMM=F IPFlag=           0 FMFlag=      100000 FMFlg1=         800
         NFxFlg=           0 DoJE=F BraDBF=F KetDBF=F FulRan=T
         wScrn=  0.000000 ICntrl=      2527 IOpCl=  0 I1Cent=           0 NGrid=           0
         NMat0=    1 NMatS0=      1 NMatT0=    0 NMatD0=    1 NMtDS0=    0 NMtDT0=    0
 Symmetry not used in FoFCou.
 Leave Link  703 at Wed Feb 28 21:01:35 2024, MaxMem=  2147483648 cpu:              85.3 elap:               3.1
 (Enter /software/gaussian-16RevA.03-el7-x86_64/g16/l716.exe)
 Dipole        = 2.67793514D-05 1.59058141D+00 1.20445003D-01
 Polarizability= 0.00000000D+00 0.00000000D+00 0.00000000D+00
                 0.00000000D+00 0.00000000D+00 0.00000000D+00
 -------------------------------------------------------------------
 Center     Atomic                   Forces (Hartrees/Bohr)
 Number     Number              X              Y              Z
 -------------------------------------------------------------------
      1        6          -0.000000001    0.000007133    0.000001377
      2        6          -0.000000140    0.000001579   -0.000001781
      3        6          -0.000013923    0.000014439   -0.000002600
      4        7          -0.000000019   -0.000013798    0.000031473
      5        6           0.000013870    0.000014415   -0.000002679
      6        6           0.000000112    0.000001601   -0.000001721
      7        6           0.000000060    0.000002969    0.000001540
      8        6           0.000001831    0.000005319   -0.000006760
      9        8          -0.000000116   -0.000023440   -0.000019772
     10        6          -0.000000153    0.000002990    0.000001581
     11        6          -0.000001801    0.000005262   -0.000006644
     12        1          -0.000000007   -0.000000192    0.000001247
     13        1          -0.000000003    0.000003444   -0.000005265
     14        1           0.000000814   -0.000001757   -0.000003523
     15        1           0.000001841   -0.000001857    0.000001114
     16        1          -0.000001860   -0.000001866    0.000001126
     17        1          -0.000000790   -0.000001772   -0.000003523
     18        1          -0.000002727    0.000001383   -0.000001316
     19        1          -0.000001537    0.000000026   -0.000000652
     20        1           0.000002139   -0.000000130   -0.000000057
     21        1           0.000002791   -0.000000724    0.000002824
     22        1          -0.000000136   -0.000006386    0.000001588
     23        1           0.000006801   -0.000001451    0.000005106
     24        1           0.000001558   -0.000000046   -0.000000589
     25        1           0.000002883    0.000001395   -0.000001390
     26        1          -0.000002170   -0.000000077   -0.000000072
     27        1          -0.000002728   -0.000000738    0.000002796
     28        1          -0.000006752   -0.000001405    0.000005030
     29        1           0.000000162   -0.000006315    0.000001541
 -------------------------------------------------------------------
 Cartesian Forces:  Max     0.000031473 RMS     0.000006406
 Leave Link  716 at Wed Feb 28 21:01:36 2024, MaxMem=  2147483648 cpu:               1.9 elap:               0.1
 (Enter /software/gaussian-16RevA.03-el7-x86_64/g16/l103.exe)

 GradGradGradGradGradGradGradGradGradGradGradGradGradGradGradGradGradGrad
 Berny optimization.
 Using GEDIIS/GDIIS optimizer.
 FormGI is forming the generalized inverse of G from B-inverse, IUseBI=4.
 Internal  Forces:  Max     0.000027280 RMS     0.000004545
 Step   3 in ReCalcFC=50 IGetFC= 0 update Hessian.
 Search for a local minimum.
 Step number   3 out of a maximum of  174
 All quantities printed in internal units (Hartrees-Bohrs-Radians)
 RMS Force = .45448D-05 SwitMx=.10000D-02 MixMth= 2
 Mixed Optimization -- En-DIIS/RFO-DIIS
 Swapping is turned off.
 Update second derivatives using D2CorX and points    1    2    3
 DE= -6.25D-06 DEPred=-5.82D-06 R= 1.07D+00
 TightC=F SS=  1.41D+00  RLast= 4.78D-02 DXNew= 6.5742D-01 1.4354D-01
 Trust test= 1.07D+00 RLast= 4.78D-02 DXMaxT set to 3.91D-01
 ITU=  1  1  0
     Eigenvalues ---    0.00222   0.00246   0.00356   0.00372   0.00493
     Eigenvalues ---    0.00644   0.00731   0.01380   0.02454   0.02632
     Eigenvalues ---    0.03893   0.03959   0.04017   0.04385   0.04485
     Eigenvalues ---    0.04533   0.04536   0.04619   0.04668   0.04675
     Eigenvalues ---    0.04770   0.04788   0.04907   0.05166   0.05782
     Eigenvalues ---    0.06129   0.06300   0.06866   0.07199   0.07303
     Eigenvalues ---    0.07706   0.08455   0.09019   0.10672   0.11456
     Eigenvalues ---    0.12303   0.12476   0.12742   0.12761   0.13454
     Eigenvalues ---    0.14396   0.14735   0.14835   0.15343   0.15506
     Eigenvalues ---    0.15766   0.15905   0.16173   0.17766   0.19012
     Eigenvalues ---    0.21892   0.22123   0.26148   0.26177   0.28606
     Eigenvalues ---    0.28841   0.29062   0.29729   0.30247   0.31841
     Eigenvalues ---    0.34507   0.34670   0.34817   0.35189   0.35372
     Eigenvalues ---    0.35418   0.35632   0.35785   0.35878   0.35881
     Eigenvalues ---    0.35956   0.36091   0.36093   0.36191   0.36347
     Eigenvalues ---    0.36361   0.36433   0.36884   0.36947   0.38015
     Eigenvalues ---    0.63568
 En-DIIS/RFO-DIIS/Sim-DIIS IScMMF=       -3 using points:     3    2
 RFO step:  Lambda=-6.50979680D-08.
 NNeg= 0 NGDIIS= 2 SimSw=  2.50D-03 Rises=F DC= -6.25D-06 SmlDif=  1.00D-05
 NRisDI= 0 DoIntr=F SqrtH=F CThrHd= 10.0 CDAdj=  3.0
 RMS Error=  0.2531998481D-03 NUsed= 2 OKEnD=F EnDIS=F
 InvSVX:  RCond= 5.72D-04 Info=           0 Equed=N FErr=  1.07D-15 BErr=  9.94D-17
 DidBck=F Rises=F RFO-DIIS coefs:    1.02972   -0.02972
 Iteration  1 RMS(Cart)=  0.00034376 RMS(Int)=  0.00000010
 Iteration  2 RMS(Cart)=  0.00000009 RMS(Int)=  0.00000006
 ITry= 1 IFail=0 DXMaxC= 2.62D-03 DCOld= 1.00D+10 DXMaxT= 3.91D-01 DXLimC= 3.00D+00 Rises=F
 Variable       Old X    -DE/DX   Delta X   Delta X   Delta X     New X
                                 (Linear)    (Quad)   (Total)
    R1        2.87769   0.00000  -0.00000   0.00001   0.00001   2.87770
    R2        2.87769   0.00000  -0.00000   0.00001   0.00001   2.87770
    R3        2.08408  -0.00000   0.00002  -0.00001   0.00000   2.08408
    R4        2.08634  -0.00000   0.00001  -0.00002  -0.00001   2.08633
    R5        2.90421   0.00000   0.00000   0.00001   0.00001   2.90422
    R6        2.08534  -0.00000   0.00001  -0.00001  -0.00000   2.08533
    R7        2.08896  -0.00000   0.00001  -0.00001  -0.00000   2.08896
    R8        2.81761   0.00003  -0.00002   0.00008   0.00006   2.81767
    R9        2.90655  -0.00000   0.00000   0.00000   0.00000   2.90655
   R10        2.89518   0.00001   0.00000   0.00001   0.00001   2.89519
   R11        2.81761   0.00003  -0.00002   0.00008   0.00006   2.81767
   R12        2.39477   0.00002   0.00000   0.00001   0.00001   2.39478
   R13        2.90421   0.00000   0.00000   0.00001   0.00001   2.90422
   R14        2.90655  -0.00000   0.00000   0.00000   0.00000   2.90655
   R15        2.89518   0.00001   0.00000   0.00001   0.00001   2.89519
   R16        2.08896  -0.00000   0.00001  -0.00001  -0.00000   2.08896
   R17        2.08534  -0.00000   0.00001  -0.00001  -0.00000   2.08533
   R18        2.08319  -0.00000   0.00002  -0.00001   0.00001   2.08319
   R19        2.08475  -0.00000   0.00002  -0.00002   0.00000   2.08475
   R20        2.08177  -0.00000   0.00002  -0.00003  -0.00001   2.08177
   R21        2.08506  -0.00000   0.00002  -0.00003  -0.00001   2.08505
   R22        2.08460  -0.00000   0.00002  -0.00002  -0.00000   2.08460
   R23        2.07890   0.00000   0.00002  -0.00001   0.00001   2.07891
   R24        2.08475  -0.00000   0.00002  -0.00002   0.00000   2.08475
   R25        2.08319  -0.00000   0.00002  -0.00001   0.00001   2.08319
   R26        2.08177  -0.00000   0.00002  -0.00003  -0.00001   2.08177
   R27        2.08506  -0.00000   0.00002  -0.00002  -0.00001   2.08505
   R28        2.07890   0.00000   0.00002  -0.00001   0.00001   2.07891
   R29        2.08460  -0.00000   0.00002  -0.00002  -0.00000   2.08460
    A1        1.90274   0.00000   0.00002  -0.00003  -0.00000   1.90273
    A2        1.91561   0.00000  -0.00001   0.00001   0.00000   1.91561
    A3        1.93697  -0.00000   0.00000   0.00001   0.00002   1.93699
    A4        1.91561   0.00000  -0.00001   0.00001   0.00000   1.91561
    A5        1.93697  -0.00000   0.00000   0.00001   0.00002   1.93699
    A6        1.85556  -0.00000  -0.00000  -0.00003  -0.00003   1.85552
    A7        1.98233   0.00001   0.00001   0.00003   0.00004   1.98237
    A8        1.94006  -0.00000  -0.00001   0.00002   0.00001   1.94007
    A9        1.89328  -0.00000   0.00000  -0.00002  -0.00001   1.89326
   A10        1.88451  -0.00000  -0.00000   0.00000   0.00000   1.88451
   A11        1.89642  -0.00000   0.00000  -0.00005  -0.00005   1.89637
   A12        1.86318   0.00000  -0.00000   0.00001   0.00001   1.86318
   A13        1.92471  -0.00000   0.00001  -0.00006  -0.00006   1.92465
   A14        1.94422   0.00000  -0.00000   0.00006   0.00005   1.94427
   A15        1.90525  -0.00000  -0.00001  -0.00000  -0.00001   1.90524
   A16        1.90392  -0.00000  -0.00000   0.00001   0.00001   1.90393
   A17        1.87634   0.00000   0.00001   0.00005   0.00006   1.87640
   A18        1.90808  -0.00000  -0.00000  -0.00005  -0.00005   1.90803
   A19        2.17111  -0.00001   0.00003  -0.00014  -0.00011   2.17100
   A20        2.02764   0.00001   0.00003   0.00010   0.00013   2.02777
   A21        2.02764   0.00001   0.00003   0.00010   0.00013   2.02777
   A22        1.92471  -0.00000   0.00001  -0.00006  -0.00006   1.92465
   A23        1.90392  -0.00000  -0.00000   0.00001   0.00001   1.90393
   A24        1.87634   0.00000   0.00001   0.00005   0.00006   1.87640
   A25        1.94422   0.00000  -0.00000   0.00006   0.00005   1.94427
   A26        1.90525  -0.00000  -0.00001  -0.00000  -0.00001   1.90524
   A27        1.90809  -0.00000  -0.00000  -0.00005  -0.00005   1.90803
   A28        1.98233   0.00001   0.00001   0.00003   0.00004   1.98237
   A29        1.89328  -0.00000   0.00000  -0.00002  -0.00001   1.89326
   A30        1.94006  -0.00000  -0.00001   0.00002   0.00001   1.94007
   A31        1.89642  -0.00000   0.00000  -0.00005  -0.00005   1.89637
   A32        1.88451  -0.00000  -0.00000   0.00001   0.00000   1.88451
   A33        1.86318   0.00000  -0.00000   0.00001   0.00001   1.86318
   A34        1.91488  -0.00000  -0.00000  -0.00004  -0.00004   1.91484
   A35        1.91651  -0.00000   0.00000  -0.00000   0.00000   1.91652
   A36        1.96134   0.00000  -0.00000   0.00006   0.00005   1.96139
   A37        1.89457   0.00000   0.00000  -0.00000  -0.00000   1.89457
   A38        1.89217   0.00000  -0.00000   0.00000  -0.00000   1.89217
   A39        1.88292  -0.00000   0.00000  -0.00001  -0.00001   1.88291
   A40        1.92965   0.00000  -0.00000   0.00005   0.00005   1.92970
   A41        1.90733   0.00000  -0.00001  -0.00001  -0.00003   1.90730
   A42        1.94242   0.00000   0.00002   0.00001   0.00003   1.94245
   A43        1.89166  -0.00000  -0.00001   0.00001   0.00000   1.89166
   A44        1.89436   0.00000   0.00001   0.00002   0.00002   1.89438
   A45        1.89745  -0.00001  -0.00001  -0.00008  -0.00009   1.89736
   A46        1.91651  -0.00000   0.00000  -0.00000   0.00000   1.91652
   A47        1.91488  -0.00000  -0.00000  -0.00004  -0.00004   1.91484
   A48        1.96134   0.00000  -0.00000   0.00006   0.00005   1.96139
   A49        1.89457   0.00000   0.00000  -0.00000  -0.00000   1.89457
   A50        1.88292  -0.00000   0.00000  -0.00001  -0.00001   1.88291
   A51        1.89217   0.00000  -0.00000   0.00000  -0.00000   1.89217
   A52        1.92965   0.00000  -0.00000   0.00005   0.00005   1.92970
   A53        1.94242   0.00000   0.00002   0.00001   0.00004   1.94245
   A54        1.90733   0.00000  -0.00001  -0.00001  -0.00003   1.90730
   A55        1.89436   0.00000   0.00001   0.00002   0.00002   1.89438
   A56        1.89166  -0.00000  -0.00001   0.00001   0.00000   1.89166
   A57        1.89745  -0.00001  -0.00001  -0.00008  -0.00009   1.89736
    D1        1.02922  -0.00000  -0.00004  -0.00004  -0.00008   1.02913
    D2       -3.12462  -0.00000  -0.00004   0.00000  -0.00004  -3.12467
    D3       -1.08125  -0.00000  -0.00005   0.00001  -0.00004  -1.08129
    D4        3.12790   0.00000  -0.00005  -0.00004  -0.00008   3.12782
    D5       -1.02594   0.00000  -0.00005   0.00001  -0.00004  -1.02598
    D6        1.01743   0.00000  -0.00005   0.00002  -0.00004   1.01739
    D7       -1.10940  -0.00000  -0.00006  -0.00006  -0.00011  -1.10951
    D8        1.01995  -0.00000  -0.00006  -0.00001  -0.00007   1.01988
    D9        3.06332  -0.00000  -0.00006  -0.00000  -0.00007   3.06325
   D10       -1.02922   0.00000   0.00004   0.00004   0.00008  -1.02913
   D11        1.08125   0.00000   0.00005  -0.00001   0.00003   1.08129
   D12        3.12463   0.00000   0.00004  -0.00000   0.00004   3.12467
   D13       -3.12790  -0.00000   0.00005   0.00003   0.00008  -3.12782
   D14       -1.01743  -0.00000   0.00005  -0.00002   0.00003  -1.01739
   D15        1.02594  -0.00000   0.00005  -0.00001   0.00004   1.02598
   D16        1.10940   0.00000   0.00006   0.00005   0.00011   1.10951
   D17       -3.06332   0.00000   0.00006  -0.00000   0.00006  -3.06325
   D18       -1.01994   0.00000   0.00006   0.00001   0.00007  -1.01988
   D19       -0.79332  -0.00000   0.00006  -0.00022  -0.00017  -0.79348
   D20        1.32336  -0.00000   0.00005  -0.00021  -0.00016   1.32320
   D21       -2.85102  -0.00001   0.00004  -0.00024  -0.00020  -2.85122
   D22       -2.95321  -0.00000   0.00007  -0.00027  -0.00021  -2.95342
   D23       -0.83653  -0.00000   0.00006  -0.00027  -0.00020  -0.83674
   D24        1.27227  -0.00000   0.00005  -0.00029  -0.00024   1.27203
   D25        1.31539  -0.00000   0.00007  -0.00026  -0.00019   1.31519
   D26       -2.85113  -0.00000   0.00006  -0.00025  -0.00019  -2.85131
   D27       -0.74232  -0.00000   0.00005  -0.00028  -0.00023  -0.74254
   D28        0.61253  -0.00000  -0.00006   0.00049   0.00042   0.61296
   D29       -2.89947   0.00001   0.00022   0.00070   0.00092  -2.89856
   D30       -1.52796  -0.00000  -0.00006   0.00045   0.00039  -1.52757
   D31        1.24322   0.00001   0.00022   0.00066   0.00088   1.24410
   D32        2.68795  -0.00000  -0.00006   0.00048   0.00042   2.68837
   D33       -0.82406   0.00001   0.00022   0.00069   0.00091  -0.82315
   D34        1.18491   0.00000  -0.00007   0.00048   0.00040   1.18531
   D35       -3.01736   0.00000  -0.00007   0.00044   0.00038  -3.01698
   D36       -0.91093  -0.00000  -0.00008   0.00046   0.00038  -0.91055
   D37       -2.96953   0.00000  -0.00007   0.00044   0.00037  -2.96916
   D38       -0.88861   0.00000  -0.00007   0.00041   0.00034  -0.88827
   D39        1.21782  -0.00000  -0.00008   0.00042   0.00035   1.21817
   D40       -0.92224   0.00000  -0.00006   0.00047   0.00041  -0.92182
   D41        1.15868   0.00000  -0.00006   0.00044   0.00039   1.15907
   D42       -3.01807   0.00000  -0.00006   0.00045   0.00039  -3.01768
   D43        1.11657  -0.00000   0.00028  -0.00003   0.00025   1.11683
   D44       -3.05989   0.00000   0.00031   0.00004   0.00034  -3.05954
   D45       -0.96411  -0.00000   0.00030  -0.00006   0.00024  -0.96388
   D46       -0.97129  -0.00000   0.00027   0.00002   0.00029  -0.97100
   D47        1.13544   0.00000   0.00029   0.00009   0.00038   1.13582
   D48       -3.05198  -0.00000   0.00029  -0.00001   0.00027  -3.05170
   D49       -3.03588   0.00000   0.00027   0.00001   0.00028  -3.03560
   D50       -0.92916   0.00000   0.00029   0.00008   0.00037  -0.92878
   D51        1.16662  -0.00000   0.00029  -0.00002   0.00026   1.16688
   D52       -0.61253   0.00000   0.00006  -0.00049  -0.00042  -0.61296
   D53        1.52796   0.00000   0.00006  -0.00045  -0.00039   1.52757
   D54       -2.68795   0.00000   0.00006  -0.00048  -0.00042  -2.68837
   D55        2.89947  -0.00001  -0.00022  -0.00070  -0.00092   2.89856
   D56       -1.24322  -0.00001  -0.00022  -0.00066  -0.00088  -1.24410
   D57        0.82406  -0.00001  -0.00022  -0.00069  -0.00091   0.82315
   D58        0.79331   0.00000  -0.00006   0.00023   0.00017   0.79348
   D59       -1.31539   0.00000  -0.00007   0.00026   0.00020  -1.31519
   D60        2.95321   0.00000  -0.00007   0.00028   0.00021   2.95342
   D61       -1.32336   0.00000  -0.00005   0.00022   0.00017  -1.32319
   D62        2.85112   0.00000  -0.00006   0.00025   0.00019   2.85132
   D63        0.83653   0.00000  -0.00006   0.00027   0.00021   0.83674
   D64        2.85102   0.00001  -0.00004   0.00025   0.00020   2.85122
   D65        0.74232   0.00000  -0.00005   0.00028   0.00023   0.74255
   D66       -1.27228   0.00000  -0.00005   0.00030   0.00025  -1.27203
   D67        0.88859  -0.00000   0.00006  -0.00038  -0.00032   0.88827
   D68        2.96950  -0.00000   0.00007  -0.00041  -0.00035   2.96916
   D69       -1.21784   0.00000   0.00007  -0.00039  -0.00032  -1.21817
   D70        3.01734  -0.00000   0.00006  -0.00042  -0.00035   3.01698
   D71       -1.18493  -0.00000   0.00007  -0.00045  -0.00038  -1.18531
   D72        0.91091   0.00000   0.00007  -0.00043  -0.00036   0.91055
   D73       -1.15870  -0.00000   0.00005  -0.00041  -0.00036  -1.15907
   D74        0.92222  -0.00000   0.00005  -0.00045  -0.00039   0.92182
   D75        3.01805  -0.00000   0.00006  -0.00043  -0.00037   3.01768
   D76        0.97129   0.00000  -0.00028  -0.00001  -0.00029   0.97100
   D77        3.05197   0.00000  -0.00029   0.00002  -0.00027   3.05170
   D78       -1.13544  -0.00000  -0.00030  -0.00008  -0.00038  -1.13582
   D79       -1.11658   0.00000  -0.00029   0.00004  -0.00025  -1.11683
   D80        0.96411   0.00000  -0.00030   0.00007  -0.00023   0.96388
   D81        3.05988  -0.00000  -0.00031  -0.00003  -0.00034   3.05954
   D82        3.03588  -0.00000  -0.00028   0.00000  -0.00027   3.03560
   D83       -1.16662   0.00000  -0.00029   0.00003  -0.00026  -1.16688
   D84        0.92915  -0.00000  -0.00030  -0.00007  -0.00036   0.92878
         Item               Value     Threshold  Converged?
 Maximum Force            0.000027     0.000450     YES
 RMS     Force            0.000005     0.000300     YES
 Maximum Displacement     0.002616     0.001800     NO 
 RMS     Displacement     0.000344     0.001200     YES
 Predicted change in Energy=-3.254908D-08
 Lowest energy point so far.  Saving SCF results.
 Step   3 in ReCalcFC=50 IGetFC= 0 compute gradient.
 GradGradGradGradGradGradGradGradGradGradGradGradGradGradGradGradGradGrad

 Leave Link  103 at Wed Feb 28 21:01:36 2024, MaxMem=  2147483648 cpu:               1.2 elap:               0.1
 (Enter /software/gaussian-16RevA.03-el7-x86_64/g16/l202.exe)
                          Input orientation:                          
 ---------------------------------------------------------------------
 Center     Atomic      Atomic             Coordinates (Angstroms)
 Number     Number       Type             X           Y           Z
 ---------------------------------------------------------------------
      1          6           0        0.000057    2.118694   -0.000870
      2          6           0       -1.239841    1.384898   -0.493987
      3          6           0       -1.318871   -0.075251   -0.021100
      4          7           0        0.000006   -0.747842   -0.198313
      5          6           0        1.318903   -0.075300   -0.021058
      6          6           0        1.239943    1.384851   -0.493948
      7          6           0        1.734467   -0.164753    1.457116
      8          6           0        2.339371   -0.827920   -0.880966
      9          8           0       -0.000020   -2.011751   -0.106183
     10          6           0       -1.734486   -0.164689    1.457060
     11          6           0       -2.339340   -0.827831   -0.881041
     12          1           0        0.000082    3.151751   -0.386967
     13          1           0        0.000041    2.199152    1.100232
     14          1           0       -2.161527    1.898089   -0.170154
     15          1           0       -1.238853    1.399020   -1.599327
     16          1           0        1.238989    1.398972   -1.599289
     17          1           0        2.161638    1.898007   -0.170087
     18          1           0        1.658715   -1.209010    1.802117
     19          1           0        2.779963    0.167985    1.572324
     20          1           0        1.105886    0.463310    2.108265
     21          1           0        2.005028   -0.869753   -1.931617
     22          1           0        3.306854   -0.299215   -0.844531
     23          1           0        2.485462   -1.856509   -0.519147
     24          1           0       -2.779973    0.168089    1.572237
     25          1           0       -1.658784   -1.208950    1.802063
     26          1           0       -1.105901    0.463349    2.108230
     27          1           0       -2.004965   -0.869675   -1.931682
     28          1           0       -2.485481   -1.856415   -0.519229
     29          1           0       -3.306804   -0.299090   -0.844637
 ---------------------------------------------------------------------
                    Distance matrix (angstroms):
                    1          2          3          4          5
     1  C    0.000000
     2  C    1.522816   0.000000
     3  C    2.559956   1.536848   0.000000
     4  N    2.873327   2.484597   1.491046   0.000000
     5  C    2.559956   2.983792   2.637774   1.491047   0.000000
     6  C    1.522816   2.479784   2.983791   2.484597   1.536848
     7  C    3.216835   3.880042   3.393524   2.467548   1.538081
     8  C    3.863870   4.225763   3.832573   2.438249   1.532068
     9  O    4.131787   3.636589   2.344492   1.267263   2.344492
    10  C    3.216836   2.540173   1.538081   2.467547   3.393524
    11  C    3.863869   2.500976   1.532068   2.438249   3.832573
    12  H    1.102850   2.161165   3.505287   3.904154   3.505287
    13  H    1.104037   2.177579   2.858290   3.220402   2.858290
    14  H    2.179396   1.103511   2.150896   3.416719   4.003734
    15  H    2.146600   1.105431   2.161175   2.847214   3.347636
    16  H    2.146600   2.714128   3.347635   2.847213   2.161175
    17  H    2.179396   3.455177   4.003734   3.416719   2.150896
    18  H    4.132254   4.516867   3.670906   2.639263   2.173647
    19  H    3.742738   4.680742   4.404385   3.420827   2.175489
    20  H    2.900276   3.622634   3.271650   2.830223   2.206693
    21  H    4.083933   4.204689   3.915305   2.653172   2.179944
    22  H    4.182458   4.861230   4.703778   3.399133   2.163376
    23  H    4.716787   4.938141   4.230116   2.740359   2.186699
    24  H    3.742738   2.849897   2.175490   3.420827   4.404385
    25  H    4.132255   3.489327   2.173647   2.639263   3.670906
    26  H    2.900278   2.763824   2.206693   2.830222   3.271649
    27  H    4.083932   2.781274   2.179944   2.653172   3.915305
    28  H    4.716787   3.472516   2.186699   2.740358   4.230115
    29  H    4.182458   2.689072   2.163376   3.399133   4.703778
                    6          7          8          9         10
     6  C    0.000000
     7  C    2.540173   0.000000
     8  C    2.500976   2.504461   0.000000
     9  O    3.636589   2.977205   2.733952   0.000000
    10  C    3.880043   3.468953   4.743685   2.977204   0.000000
    11  C    4.225763   4.743686   4.678711   2.733952   2.504461
    12  H    2.161165   4.172281   4.642638   5.171131   4.172282
    13  H    2.177579   2.953582   4.308221   4.380313   2.953583
    14  H    3.455177   4.699159   5.309846   4.468004   2.661812
    15  H    2.714128   4.541790   4.275394   3.923971   3.468767
    16  H    1.105431   3.468767   2.585706   3.923970   4.541790
    17  H    1.103511   2.661812   2.822696   4.468004   4.699160
    18  H    3.489327   1.102378   2.794183   2.652810   3.566999
    19  H    2.849896   1.103200   2.684135   3.911130   4.528157
    20  H    2.763824   1.101623   3.481991   3.500391   2.980967
    21  H    2.781275   3.471849   1.103360   2.942207   5.095509
    22  H    2.689073   2.790709   1.103122   3.796492   5.543512
    23  H    3.472516   2.707701   1.100114   2.524333   4.957379
    24  H    4.680743   4.528157   5.763499   3.911130   1.103200
    25  H    4.516867   3.567000   4.830018   2.652809   1.102378
    26  H    3.622634   2.980965   4.740524   3.500389   1.101623
    27  H    4.204687   5.095509   4.469788   2.942208   3.471850
    28  H    4.938140   4.957380   4.946499   2.524332   2.707701
    29  H    4.861229   5.543512   5.671003   3.796491   2.790709
                   11         12         13         14         15
    11  C    0.000000
    12  H    4.642637   0.000000
    13  H    4.308221   1.766127   0.000000
    14  H    2.822697   2.508233   2.525251   0.000000
    15  H    2.585705   2.465125   3.076148   1.772832   0.000000
    16  H    4.275392   2.465126   3.076148   3.722237   2.477842
    17  H    5.309845   2.508233   2.525252   4.323165   3.722238
    18  H    4.830019   5.153581   3.854791   5.304542   5.173736
    19  H    5.763499   4.524315   3.475123   5.517954   5.265520
    20  H    4.740525   3.831018   2.291761   4.233884   4.485487
    21  H    4.469788   4.751657   4.757127   5.303195   3.972469
    22  H    5.671003   4.801382   4.578095   5.931789   4.910923
    23  H    4.946500   5.592606   5.024747   5.984422   5.063178
    24  H    2.684136   4.524315   3.475124   2.532055   3.734844
    25  H    2.794183   5.153582   3.854792   3.714307   4.306658
    26  H    3.481991   3.831020   2.291763   2.892034   3.826113
    27  H    1.103360   4.751655   4.757126   3.284511   2.417513
    28  H    1.100114   5.592606   5.024748   3.784587   3.649459
    29  H    1.103122   4.801382   4.578095   2.567914   2.780209
                   16         17         18         19         20
    16  H    0.000000
    17  H    1.772832   0.000000
    18  H    4.306658   3.714307   0.000000
    19  H    3.734844   2.532055   1.790564   0.000000
    20  H    3.826112   2.892033   1.787737   1.782410   0.000000
    21  H    2.417514   3.284511   3.765076   3.735643   4.348122
    22  H    2.780210   2.567914   3.247897   2.517356   3.760945
    23  H    3.649460   3.784586   2.547750   2.925672   3.766707
    24  H    5.265520   5.517955   4.653085   5.559936   3.933749
    25  H    5.173736   5.304544   3.317499   4.653086   3.245553
    26  H    4.485487   4.233885   3.245550   3.933749   2.211787
    27  H    3.972466   5.303194   5.242037   6.020825   5.270239
    28  H    5.063176   5.984421   4.793968   6.016451   5.018243
    29  H    4.910922   5.931789   5.699969   6.565714   5.364021
                   21         22         23         24         25
    21  H    0.000000
    22  H    1.789419   0.000000
    23  H    1.788735   1.790453   0.000000
    24  H    6.020825   6.565714   6.016451   0.000000
    25  H    5.242036   5.699969   4.793967   1.790564   0.000000
    26  H    5.270238   5.364020   5.018240   1.782410   1.787736
    27  H    4.009993   5.451857   4.809680   3.735644   3.765076
    28  H    4.809679   6.006815   4.970942   2.925674   2.547750
    29  H    5.451857   6.613658   6.006816   2.517357   3.247897
                   26         27         28         29
    26  H    0.000000
    27  H    4.348121   0.000000
    28  H    3.766707   1.788735   0.000000
    29  H    3.760946   1.789419   1.790453   0.000000
 Symmetry turned off by external request.
 Stoichiometry    C9H18NO(2)
 Framework group  C1[X(C9H18NO)]
 Deg. of freedom    81
 Full point group                 C1      NOp   1
 Rotational constants (GHZ):           1.4843674           1.0670575           0.8585899
 Leave Link  202 at Wed Feb 28 21:01:36 2024, MaxMem=  2147483648 cpu:               0.4 elap:               0.0
 (Enter /software/gaussian-16RevA.03-el7-x86_64/g16/l301.exe)
 Standard basis: def2SVPP (5D, 7F)
 Ernie: Thresh=  0.10000D-02 Tol=  0.10000D-05 Strict=F.
   190 basis functions,   347 primitive gaussians,   201 cartesian basis functions
    44 alpha electrons       43 beta electrons
       nuclear repulsion energy       716.3861461939 Hartrees.
 IExCor= 4639 DFT=T Ex+Corr=wB97XD ExCW=0 ScaHFX=  1.000000
 ScaDFX=  1.000000  1.000000  1.000000  1.000000 ScalE2=  1.000000  1.000000
 IRadAn=      5 IRanWt=     -1 IRanGd=            0 ICorTp=0 IEmpDi=121
 HFx  wShort=  0.000000 wLong=  0.200000 cFull=  0.222036 cShort=  0.000000 cLong=  0.777964
 DFx  wShort=  0.000000 wLong=  0.200000 cFull=  0.000000 cShort=  0.000000 cLong=  1.000000
 NAtoms=   29 NActive=   29 NUniq=   29 SFac= 1.00D+00 NAtFMM=   60 NAOKFM=F Big=F
 Integral buffers will be    131072 words long.
 Raffenetti 2 integral format.
 Two-electron integral symmetry is turned off.
 R6Disp:  Grimme-D2 Dispersion energy=       -0.0257204095 Hartrees.
 Nuclear repulsion after empirical dispersion term =      716.3604257844 Hartrees.
 Force inversion solution in PCM.
 ------------------------------------------------------------------------------
 Polarizable Continuum Model (PCM)
 =================================
 Model                : PCM.
 Atomic radii         : UFF (Universal Force Field).
 Polarization charges : Total charges.
 Charge compensation  : None.
 Solution method      : Matrix inversion.
 Cavity type          : Scaled VdW (van der Waals Surface) (Alpha=1.100).
 Cavity algorithm     : GePol (No added spheres)
                        Default sphere list used, NSphG=   29.
                        Lebedev-Laikov grids with approx.  5.0 points / Ang**2.
                        Smoothing algorithm: York/Karplus (Gamma=1.0000).
                        Polarization charges: spherical gaussians, with
                                              point-specific exponents (IZeta= 3).
                        Self-potential: point-specific (ISelfS= 7).
                        Self-field    : sphere-specific E.n sum rule (ISelfD= 2).
 1st derivatives      : Analytical E(r).r(x)/FMM algorithm (CHGder, D1EAlg=3).
                        Cavity 1st derivative terms included.
 Solvent              : n,n-DiMethylFormamide, Eps=  37.219000 Eps(inf)=   2.046330
 ------------------------------------------------------------------------------
 GePol: Number of generator spheres                  =      29
 GePol: Total number of spheres                      =      29
 GePol: Number of exposed spheres                    =      29 (100.00%)
 GePol: Number of points                             =    1753
 GePol: Average weight of points                     =       0.13
 GePol: Minimum weight of points                     =   0.14D-09
 GePol: Maximum weight of points                     =    0.20577
 GePol: Number of points with low weight             =     100
 GePol: Fraction of low-weight points (<1% of avg)   =       5.70%
 GePol: Cavity surface area                          =    236.639 Ang**2
 GePol: Cavity volume                                =    256.598 Ang**3
 Leave Link  301 at Wed Feb 28 21:01:36 2024, MaxMem=  2147483648 cpu:               2.2 elap:               0.1
 (Enter /software/gaussian-16RevA.03-el7-x86_64/g16/l302.exe)
 NPDir=0 NMtPBC=     1 NCelOv=     1 NCel=       1 NClECP=     1 NCelD=      1
         NCelK=      1 NCelE2=     1 NClLst=     1 CellRange=     0.0.
 One-electron integrals computed using PRISM.
   1 Symmetry operations used in ECPInt.
 ECPInt:  NShTT=    5253 NPrTT=   21107 LenC2=    5228 LenP2D=   16397.
 LDataN:  DoStor=T MaxTD1= 4 Len=   56
 NBasis=   190 RedAO= T EigKep=  1.01D-03  NBF=   190
 NBsUse=   190 1.00D-06 EigRej= -1.00D+00 NBFU=   190
 Precomputing XC quadrature grid using
 IXCGrd= 4 IRadAn=           5 IRanWt=          -1 IRanGd=           0 AccXCQ= 0.00D+00.
 Generated NRdTot=       0 NPtTot=           0 NUsed=           0 NTot=          32
 NSgBfM=   201   201   201   201   201 MxSgAt=    29 MxSgA2=    29.
 Leave Link  302 at Wed Feb 28 21:01:36 2024, MaxMem=  2147483648 cpu:               7.2 elap:               0.3
 (Enter /software/gaussian-16RevA.03-el7-x86_64/g16/l303.exe)
 DipDrv:  MaxL=1.
 Leave Link  303 at Wed Feb 28 21:01:36 2024, MaxMem=  2147483648 cpu:               3.5 elap:               0.2
 (Enter /software/gaussian-16RevA.03-el7-x86_64/g16/l401.exe)
 Initial guess from the checkpoint file:  "TEMPO-cavity-in-DMF-wB97XD.chk"
 B after Tr=    -0.000001   -0.000007   -0.000225
         Rot=    1.000000   -0.000046   -0.000000    0.000000 Ang=  -0.01 deg.
 Guess basis will be translated and rotated to current coordinates.
 JPrj=2 DoOrth=T DoCkMO=T.
 Initial guess <Sx>= 0.0000 <Sy>= 0.0000 <Sz>= 0.5000 <S**2>= 0.7539 S= 0.5020
 Leave Link  401 at Wed Feb 28 21:01:37 2024, MaxMem=  2147483648 cpu:               6.8 elap:               0.3
 (Enter /software/gaussian-16RevA.03-el7-x86_64/g16/l502.exe)
 Two-electron integral symmetry not used.
 UHF open shell SCF:
 Using DIIS extrapolation, IDIIS=  1040.
 NGot=  2147483648 LenX=  2147395142 LenY=  2147354300
 Requested convergence on RMS density matrix=1.00D-08 within  32 cycles.
 Requested convergence on MAX density matrix=1.00D-06.
 Requested convergence on             energy=1.00D-06.
 No special actions if energy rises.
 Fock matrices will be formed incrementally for  20 cycles.

 Cycle   1  Pass 1  IDiag  1:
 FoFJK:  IHMeth= 1 ICntrl=       0 DoSepK=T KAlg= 0 I1Cent=           0 FoldK=F
 IRaf=         1 NMat=       1 IRICut=       1 DoRegI=T DoRafI=F ISym2E= 0 IDoP0=0 IntGTp=1.
 FoFCou: FMM=F IPFlag=           0 FMFlag=      100000 FMFlg1=           0
         NFxFlg=           0 DoJE=T BraDBF=F KetDBF=F FulRan=T
         wScrn=  0.000000 ICntrl=       500 IOpCl=  0 I1Cent=           0 NGrid=           0
         NMat0=    1 NMatS0=      1 NMatT0=    0 NMatD0=    1 NMtDS0=    0 NMtDT0=    0
 Symmetry not used in FoFCou.
 Inv3:  Mode=1 IEnd=     9219027.
 Iteration    1 A*A^-1 deviation from unit magnitude is 2.89D-15 for   1336.
 Iteration    1 A*A^-1 deviation from orthogonality  is 1.97D-15 for    777      8.
 Iteration    1 A^-1*A deviation from unit magnitude is 3.11D-15 for    376.
 Iteration    1 A^-1*A deviation from orthogonality  is 2.15D-15 for   1621     69.
 E= -483.205970060009    
 DIIS: error= 5.57D-05 at cycle   1 NSaved=   1.
 NSaved= 1 IEnMin= 1 EnMin= -483.205970060009     IErMin= 1 ErrMin= 5.57D-05
 ErrMax= 5.57D-05  0.00D+00 EMaxC= 1.00D-01 BMatC= 1.34D-06 BMatP= 1.34D-06
 IDIUse=1 WtCom= 1.00D+00 WtEn= 0.00D+00
 Coeff-Com:  0.100D+01
 Coeff:      0.100D+01
 Gap=     0.658 Goal=   None    Shift=    0.000
 Gap=     0.711 Goal=   None    Shift=    0.000
 RMSDP=4.86D-06 MaxDP=1.80D-04              OVMax= 2.08D-04

 Cycle   2  Pass 1  IDiag  1:
 RMSU=  4.86D-06    CP:  1.00D+00
 E= -483.205970630018     Delta-E=       -0.000000570010 Rises=F Damp=F
 DIIS: error= 1.49D-05 at cycle   2 NSaved=   2.
 NSaved= 2 IEnMin= 2 EnMin= -483.205970630018     IErMin= 2 ErrMin= 1.49D-05
 ErrMax= 1.49D-05  0.00D+00 EMaxC= 1.00D-01 BMatC= 6.23D-08 BMatP= 1.34D-06
 IDIUse=1 WtCom= 1.00D+00 WtEn= 0.00D+00
 Coeff-Com: -0.206D+00 0.121D+01
 Coeff:     -0.206D+00 0.121D+01
 Gap=     0.401 Goal=   None    Shift=    0.000
 Gap=     0.353 Goal=   None    Shift=    0.000
 RMSDP=1.68D-06 MaxDP=6.30D-05 DE=-5.70D-07 OVMax= 7.97D-05

 Cycle   3  Pass 1  IDiag  1:
 RMSU=  9.15D-07    CP:  1.00D+00  1.29D+00
 E= -483.205970674870     Delta-E=       -0.000000044851 Rises=F Damp=F
 DIIS: error= 5.25D-06 at cycle   3 NSaved=   3.
 NSaved= 3 IEnMin= 3 EnMin= -483.205970674870     IErMin= 3 ErrMin= 5.25D-06
 ErrMax= 5.25D-06  0.00D+00 EMaxC= 1.00D-01 BMatC= 3.87D-09 BMatP= 6.23D-08
 IDIUse=1 WtCom= 1.00D+00 WtEn= 0.00D+00
 Coeff-Com: -0.158D-01-0.341D-02 0.102D+01
 Coeff:     -0.158D-01-0.341D-02 0.102D+01
 Gap=     0.401 Goal=   None    Shift=    0.000
 Gap=     0.353 Goal=   None    Shift=    0.000
 RMSDP=4.05D-07 MaxDP=1.26D-05 DE=-4.49D-08 OVMax= 2.50D-05

 Cycle   4  Pass 1  IDiag  1:
 RMSU=  2.97D-07    CP:  1.00D+00  1.32D+00  1.26D+00
 E= -483.205970677411     Delta-E=       -0.000000002542 Rises=F Damp=F
 DIIS: error= 2.90D-06 at cycle   4 NSaved=   4.
 NSaved= 4 IEnMin= 4 EnMin= -483.205970677411     IErMin= 4 ErrMin= 2.90D-06
 ErrMax= 2.90D-06  0.00D+00 EMaxC= 1.00D-01 BMatC= 1.77D-09 BMatP= 3.87D-09
 IDIUse=1 WtCom= 1.00D+00 WtEn= 0.00D+00
 Coeff-Com:  0.233D-01-0.178D+00 0.422D+00 0.733D+00
 Coeff:      0.233D-01-0.178D+00 0.422D+00 0.733D+00
 Gap=     0.401 Goal=   None    Shift=    0.000
 Gap=     0.353 Goal=   None    Shift=    0.000
 RMSDP=1.86D-07 MaxDP=6.60D-06 DE=-2.54D-09 OVMax= 1.11D-05

 Cycle   5  Pass 1  IDiag  1:
 RMSU=  1.18D-07    CP:  1.00D+00  1.33D+00  1.41D+00  8.97D-01
 E= -483.205970678166     Delta-E=       -0.000000000755 Rises=F Damp=F
 DIIS: error= 1.23D-06 at cycle   5 NSaved=   5.
 NSaved= 5 IEnMin= 5 EnMin= -483.205970678166     IErMin= 5 ErrMin= 1.23D-06
 ErrMax= 1.23D-06  0.00D+00 EMaxC= 1.00D-01 BMatC= 1.73D-10 BMatP= 1.77D-09
 IDIUse=1 WtCom= 1.00D+00 WtEn= 0.00D+00
 Coeff-Com:  0.256D-02-0.297D-03-0.155D+00 0.887D-02 0.114D+01
 Coeff:      0.256D-02-0.297D-03-0.155D+00 0.887D-02 0.114D+01
 Gap=     0.401 Goal=   None    Shift=    0.000
 Gap=     0.353 Goal=   None    Shift=    0.000
 RMSDP=1.04D-07 MaxDP=4.86D-06 DE=-7.55D-10 OVMax= 7.62D-06

 Cycle   6  Pass 1  IDiag  1:
 RMSU=  5.39D-08    CP:  1.00D+00  1.32D+00  1.45D+00  1.09D+00  1.44D+00
 E= -483.205970678307     Delta-E=       -0.000000000141 Rises=F Damp=F
 DIIS: error= 4.18D-07 at cycle   6 NSaved=   6.
 NSaved= 6 IEnMin= 6 EnMin= -483.205970678307     IErMin= 6 ErrMin= 4.18D-07
 ErrMax= 4.18D-07  0.00D+00 EMaxC= 1.00D-01 BMatC= 9.05D-11 BMatP= 1.73D-10
 IDIUse=1 WtCom= 1.00D+00 WtEn= 0.00D+00
 Coeff-Com: -0.330D-02 0.364D-01-0.173D+00-0.144D+00 0.648D+00 0.636D+00
 Coeff:     -0.330D-02 0.364D-01-0.173D+00-0.144D+00 0.648D+00 0.636D+00
 Gap=     0.401 Goal=   None    Shift=    0.000
 Gap=     0.353 Goal=   None    Shift=    0.000
 RMSDP=4.01D-08 MaxDP=1.71D-06 DE=-1.41D-10 OVMax= 2.92D-06

 Cycle   7  Pass 1  IDiag  1:
 RMSU=  1.82D-08    CP:  1.00D+00  1.32D+00  1.46D+00  1.14D+00  1.69D+00
                    CP:  7.98D-01
 E= -483.205970678338     Delta-E=       -0.000000000031 Rises=F Damp=F
 DIIS: error= 1.08D-07 at cycle   7 NSaved=   7.
 NSaved= 7 IEnMin= 7 EnMin= -483.205970678338     IErMin= 7 ErrMin= 1.08D-07
 ErrMax= 1.08D-07  0.00D+00 EMaxC= 1.00D-01 BMatC= 5.47D-12 BMatP= 9.05D-11
 IDIUse=1 WtCom= 1.00D+00 WtEn= 0.00D+00
 Coeff-Com: -0.125D-02 0.102D-01-0.264D-01-0.396D-01 0.962D-02 0.199D+00
 Coeff-Com:  0.848D+00
 Coeff:     -0.125D-02 0.102D-01-0.264D-01-0.396D-01 0.962D-02 0.199D+00
 Coeff:      0.848D+00
 Gap=     0.401 Goal=   None    Shift=    0.000
 Gap=     0.353 Goal=   None    Shift=    0.000
 RMSDP=1.25D-08 MaxDP=4.96D-07 DE=-3.14D-11 OVMax= 6.41D-07

 Cycle   8  Pass 1  IDiag  1:
 RMSU=  6.10D-09    CP:  1.00D+00  1.32D+00  1.46D+00  1.15D+00  1.75D+00
                    CP:  9.08D-01  1.11D+00
 E= -483.205970678338     Delta-E=        0.000000000000 Rises=F Damp=F
 DIIS: error= 2.21D-08 at cycle   8 NSaved=   8.
 NSaved= 8 IEnMin= 7 EnMin= -483.205970678338     IErMin= 8 ErrMin= 2.21D-08
 ErrMax= 2.21D-08  0.00D+00 EMaxC= 1.00D-01 BMatC= 5.52D-13 BMatP= 5.47D-12
 IDIUse=1 WtCom= 1.00D+00 WtEn= 0.00D+00
 Coeff-Com: -0.152D-03 0.351D-03 0.624D-02-0.177D-03-0.595D-01 0.263D-01
 Coeff-Com:  0.288D+00 0.739D+00
 Coeff:     -0.152D-03 0.351D-03 0.624D-02-0.177D-03-0.595D-01 0.263D-01
 Coeff:      0.288D+00 0.739D+00
 Gap=     0.401 Goal=   None    Shift=    0.000
 Gap=     0.353 Goal=   None    Shift=    0.000
 RMSDP=3.75D-09 MaxDP=1.23D-07 DE= 4.55D-13 OVMax= 2.48D-07

 Error on total polarization charges =  0.00923
 SCF Done:  E(UwB97XD) =  -483.205970678     A.U. after    8 cycles
            NFock=  8  Conv=0.38D-08     -V/T= 2.0105
 <Sx>= 0.0000 <Sy>= 0.0000 <Sz>= 0.5000 <S**2>= 0.7539 S= 0.5020
 <L.S>=  0.00000000000    
 KE= 4.781654801986D+02 PE=-2.553657346781D+03 EE= 8.759254701197D+02
 Annihilation of the first spin contaminant:
 S**2 before annihilation     0.7539,   after     0.7500
 Leave Link  502 at Wed Feb 28 21:01:50 2024, MaxMem=  2147483648 cpu:             363.9 elap:              13.3
 (Enter /software/gaussian-16RevA.03-el7-x86_64/g16/l508.exe)
 QCSCF skips out because SCF is already converged.
 Leave Link  508 at Wed Feb 28 21:01:50 2024, MaxMem=  2147483648 cpu:               0.1 elap:               0.0
 (Enter /software/gaussian-16RevA.03-el7-x86_64/g16/l801.exe)
 DoSCS=F DFT=T ScalE2(SS,OS)=  1.000000  1.000000
 Range of M.O.s used for correlation:     1   190
 NBasis=   190 NAE=    44 NBE=    43 NFC=     0 NFV=     0
 NROrb=    190 NOA=    44 NOB=    43 NVA=   146 NVB=   147
 Leave Link  801 at Wed Feb 28 21:01:50 2024, MaxMem=  2147483648 cpu:               1.4 elap:               0.1
 (Enter /software/gaussian-16RevA.03-el7-x86_64/g16/l1101.exe)
 Leave Link 1101 at Wed Feb 28 21:01:50 2024, MaxMem=  2147483648 cpu:               0.9 elap:               0.1
 (Enter /software/gaussian-16RevA.03-el7-x86_64/g16/l1102.exe)
 Symmetrizing basis deriv contribution to polar:
 IMax=3 JMax=2 DiffMx= 0.00D+00
 Leave Link 1102 at Wed Feb 28 21:01:50 2024, MaxMem=  2147483648 cpu:               1.0 elap:               0.1
 (Enter /software/gaussian-16RevA.03-el7-x86_64/g16/l1110.exe)
 Leave Link 1110 at Wed Feb 28 21:01:50 2024, MaxMem=  2147483648 cpu:               0.8 elap:               0.1
 (Enter /software/gaussian-16RevA.03-el7-x86_64/g16/l1002.exe)
 Minotr:  UHF open shell wavefunction.
 Leave Link 1002 at Wed Feb 28 21:01:50 2024, MaxMem=  2147483648 cpu:               2.1 elap:               0.1
 (Enter /software/gaussian-16RevA.03-el7-x86_64/g16/l701.exe)
 ... and contract with generalized density number  0.
 Compute integral first derivatives.
 R6Disp: Adding Grimme-D2 dispersion energy 1st derivatives to the gradient.
   1 Symmetry operations used in ECPInt.
 ECPInt:  NShTT=    5253 NPrTT=   21107 LenC2=    5228 LenP2D=   16397.
 LDataN:  DoStor=T MaxTD1= 5 Len=  102
 D1PCM: PCM CHGder 1st derivatives, ID1Alg=3 FixD1E=F DoIter=F DoCFld=F I1PDM=0.
 GePol: Maximum number of non-zero 1st derivatives   =     166
 Leave Link  701 at Wed Feb 28 21:01:51 2024, MaxMem=  2147483648 cpu:              19.8 elap:               0.7
 (Enter /software/gaussian-16RevA.03-el7-x86_64/g16/l702.exe)
 L702 exits ... SP integral derivatives will be done elsewhere.
 Leave Link  702 at Wed Feb 28 21:01:51 2024, MaxMem=  2147483648 cpu:               0.9 elap:               0.1
 (Enter /software/gaussian-16RevA.03-el7-x86_64/g16/l703.exe)
 Integral derivatives from FoFJK, PRISM(SPDF).
 Compute integral first derivatives, UseDBF=F ICtDFT=           0.
 Calling FoFJK, ICntrl=      2127 FMM=F ISym2X=0 I1Cent= 0 IOpClX= 1 NMat=1 NMatS=1 NMatT=0.
 FoFJK:  IHMeth= 1 ICntrl=    2127 DoSepK=T KAlg= 0 I1Cent=           0 FoldK=F
 IRaf=         1 NMat=       1 IRICut=       1 DoRegI=T DoRafI=F ISym2E= 0 IDoP0=0 IntGTp=1.
 FoFCou: FMM=F IPFlag=           0 FMFlag=      100000 FMFlg1=         800
         NFxFlg=           0 DoJE=F BraDBF=F KetDBF=F FulRan=T
         wScrn=  0.000000 ICntrl=      2527 IOpCl=  0 I1Cent=           0 NGrid=           0
         NMat0=    1 NMatS0=      1 NMatT0=    0 NMatD0=    1 NMtDS0=    0 NMtDT0=    0
 Symmetry not used in FoFCou.
 Leave Link  703 at Wed Feb 28 21:01:54 2024, MaxMem=  2147483648 cpu:              85.2 elap:               3.1
 (Enter /software/gaussian-16RevA.03-el7-x86_64/g16/l716.exe)
 Dipole        = 2.91677133D-05 1.59064634D+00 1.21441729D-01
 Polarizability= 0.00000000D+00 0.00000000D+00 0.00000000D+00
                 0.00000000D+00 0.00000000D+00 0.00000000D+00
 -------------------------------------------------------------------
 Center     Atomic                   Forces (Hartrees/Bohr)
 Number     Number              X              Y              Z
 -------------------------------------------------------------------
      1        6          -0.000000000    0.000001265    0.000000025
      2        6          -0.000001072    0.000000226   -0.000001590
      3        6           0.000000010    0.000000624    0.000000916
      4        7           0.000000000   -0.000001162    0.000000415
      5        6          -0.000000017    0.000000623    0.000000911
      6        6           0.000001079    0.000000225   -0.000001596
      7        6           0.000000304    0.000000965    0.000001361
      8        6           0.000000284   -0.000000832   -0.000000462
      9        8           0.000000014   -0.000001172   -0.000001661
     10        6          -0.000000291    0.000000960    0.000001353
     11        6          -0.000000297   -0.000000833   -0.000000459
     12        1           0.000000001   -0.000001297   -0.000001024
     13        1           0.000000002    0.000000329   -0.000002217
     14        1           0.000000836   -0.000000671   -0.000001392
     15        1           0.000000022   -0.000000918    0.000000365
     16        1          -0.000000023   -0.000000917    0.000000363
     17        1          -0.000000837   -0.000000671   -0.000001394
     18        1           0.000000034    0.000002271    0.000000337
     19        1          -0.000001131    0.000000516   -0.000000292
     20        1           0.000000717    0.000000356   -0.000000950
     21        1           0.000000727   -0.000000910    0.000002278
     22        1          -0.000001043   -0.000001223    0.000000534
     23        1           0.000000197    0.000000617    0.000001144
     24        1           0.000001129    0.000000517   -0.000000303
     25        1          -0.000000042    0.000002274    0.000000342
     26        1          -0.000000721    0.000000358   -0.000000950
     27        1          -0.000000723   -0.000000912    0.000002274
     28        1          -0.000000201    0.000000620    0.000001142
     29        1           0.000001043   -0.000001228    0.000000531
 -------------------------------------------------------------------
 Cartesian Forces:  Max     0.000002278 RMS     0.000000959
 Leave Link  716 at Wed Feb 28 21:01:54 2024, MaxMem=  2147483648 cpu:               1.0 elap:               0.1
 (Enter /software/gaussian-16RevA.03-el7-x86_64/g16/l103.exe)

 GradGradGradGradGradGradGradGradGradGradGradGradGradGradGradGradGradGrad
 Berny optimization.
 Using GEDIIS/GDIIS optimizer.
 FormGI is forming the generalized inverse of G from B-inverse, IUseBI=4.
 Internal  Forces:  Max     0.000001885 RMS     0.000000550
 Step   4 in ReCalcFC=50 IGetFC= 0 update Hessian.
 Search for a local minimum.
 Step number   4 out of a maximum of  174
 All quantities printed in internal units (Hartrees-Bohrs-Radians)
 RMS Force = .54974D-06 SwitMx=.10000D-02 MixMth= 2
 Mixed Optimization -- En-DIIS/RFO-DIIS
 Swapping is turned off.
 Update second derivatives using D2CorX and points    1    2    3    4
 DE= -3.69D-08 DEPred=-3.25D-08 R= 1.13D+00
 Trust test= 1.13D+00 RLast= 3.30D-03 DXMaxT set to 3.91D-01
 ITU=  0  1  1  0
     Eigenvalues ---    0.00222   0.00233   0.00356   0.00373   0.00493
     Eigenvalues ---    0.00632   0.00667   0.01390   0.02489   0.02632
     Eigenvalues ---    0.03893   0.03959   0.04018   0.04385   0.04485
     Eigenvalues ---    0.04533   0.04534   0.04619   0.04668   0.04670
     Eigenvalues ---    0.04770   0.04789   0.04908   0.05166   0.05773
     Eigenvalues ---    0.06129   0.06298   0.06866   0.07200   0.07303
     Eigenvalues ---    0.07707   0.08455   0.09037   0.10672   0.11456
     Eigenvalues ---    0.12310   0.12476   0.12742   0.12768   0.13473
     Eigenvalues ---    0.14396   0.14737   0.14835   0.15343   0.15507
     Eigenvalues ---    0.15771   0.15905   0.16205   0.17766   0.19003
     Eigenvalues ---    0.21900   0.22123   0.26148   0.26202   0.28606
     Eigenvalues ---    0.28852   0.29062   0.29733   0.30244   0.31841
     Eigenvalues ---    0.34585   0.34670   0.34761   0.35110   0.35239
     Eigenvalues ---    0.35372   0.35450   0.35785   0.35796   0.35881
     Eigenvalues ---    0.35908   0.36088   0.36091   0.36191   0.36330
     Eigenvalues ---    0.36361   0.36433   0.36789   0.36945   0.38015
     Eigenvalues ---    0.63631
 En-DIIS/RFO-DIIS/Sim-DIIS IScMMF=       -3 using points:     4    3    2
 RFO step:  Lambda=-3.32548623D-10.
 NNeg= 0 NGDIIS= 3 SimSw=  2.50D-01 Rises=F DC= -3.69D-08 SmlDif=  1.00D-05
 NRisDI= 0 DoIntr=F SqrtH=F CThrHd= 10.0 CDAdj=  3.0
 RMS Error=  0.5471526606D-04 NUsed= 3 OKEnD=F EnDIS=F
 InvSVX:  RCond= 1.33D-06 Info=           0 Equed=N FErr=  1.93D-15 BErr=  4.40D-17
 DidBck=F Rises=F RFO-DIIS coefs:    1.21906   -0.22111    0.00205
 Iteration  1 RMS(Cart)=  0.00008652 RMS(Int)=  0.00000001
 Iteration  2 RMS(Cart)=  0.00000001 RMS(Int)=  0.00000000
 ITry= 1 IFail=0 DXMaxC= 6.54D-04 DCOld= 1.00D+10 DXMaxT= 3.91D-01 DXLimC= 3.00D+00 Rises=F
 Variable       Old X    -DE/DX   Delta X   Delta X   Delta X     New X
                                 (Linear)    (Quad)   (Total)
    R1        2.87770  -0.00000   0.00000   0.00000   0.00000   2.87771
    R2        2.87770  -0.00000   0.00000   0.00000   0.00000   2.87771
    R3        2.08408  -0.00000  -0.00000  -0.00000  -0.00000   2.08408
    R4        2.08633  -0.00000  -0.00000  -0.00000  -0.00000   2.08632
    R5        2.90422  -0.00000   0.00000  -0.00000   0.00000   2.90422
    R6        2.08533  -0.00000  -0.00000  -0.00000  -0.00000   2.08533
    R7        2.08896  -0.00000  -0.00000  -0.00000  -0.00000   2.08896
    R8        2.81767   0.00000   0.00002  -0.00001   0.00000   2.81767
    R9        2.90655  -0.00000   0.00000   0.00000   0.00000   2.90655
   R10        2.89519  -0.00000   0.00000  -0.00000  -0.00000   2.89519
   R11        2.81767   0.00000   0.00001  -0.00001   0.00000   2.81767
   R12        2.39478   0.00000   0.00000  -0.00000  -0.00000   2.39478
   R13        2.90422  -0.00000   0.00000  -0.00000   0.00000   2.90422
   R14        2.90655  -0.00000   0.00000   0.00000   0.00000   2.90655
   R15        2.89519  -0.00000   0.00000  -0.00000  -0.00000   2.89519
   R16        2.08896  -0.00000  -0.00000  -0.00000  -0.00000   2.08896
   R17        2.08533  -0.00000  -0.00000  -0.00000  -0.00000   2.08533
   R18        2.08319  -0.00000   0.00000  -0.00000  -0.00000   2.08319
   R19        2.08475  -0.00000  -0.00000  -0.00000  -0.00000   2.08474
   R20        2.08177  -0.00000  -0.00000  -0.00000  -0.00001   2.08176
   R21        2.08505  -0.00000  -0.00000  -0.00000  -0.00001   2.08504
   R22        2.08460  -0.00000  -0.00000  -0.00000  -0.00000   2.08460
   R23        2.07891  -0.00000   0.00000  -0.00000  -0.00000   2.07891
   R24        2.08475  -0.00000  -0.00000  -0.00000  -0.00000   2.08474
   R25        2.08319  -0.00000   0.00000  -0.00000  -0.00000   2.08319
   R26        2.08177  -0.00000  -0.00000  -0.00000  -0.00001   2.08176
   R27        2.08505  -0.00000  -0.00000  -0.00000  -0.00001   2.08504
   R28        2.07891  -0.00000   0.00000  -0.00000  -0.00000   2.07891
   R29        2.08460  -0.00000  -0.00000  -0.00000  -0.00000   2.08460
    A1        1.90273   0.00000  -0.00000   0.00001   0.00001   1.90274
    A2        1.91561  -0.00000   0.00000  -0.00000  -0.00000   1.91561
    A3        1.93699  -0.00000   0.00000  -0.00001  -0.00000   1.93699
    A4        1.91561  -0.00000   0.00000  -0.00000  -0.00000   1.91561
    A5        1.93699  -0.00000   0.00000  -0.00001  -0.00000   1.93699
    A6        1.85552   0.00000  -0.00001   0.00000  -0.00000   1.85552
    A7        1.98237  -0.00000   0.00001  -0.00001  -0.00000   1.98237
    A8        1.94007  -0.00000   0.00000  -0.00001  -0.00000   1.94007
    A9        1.89326   0.00000  -0.00000   0.00001   0.00000   1.89327
   A10        1.88451   0.00000   0.00000   0.00000   0.00000   1.88452
   A11        1.89637  -0.00000  -0.00001   0.00000  -0.00001   1.89637
   A12        1.86318  -0.00000   0.00000   0.00000   0.00000   1.86319
   A13        1.92465   0.00000  -0.00001  -0.00001  -0.00002   1.92463
   A14        1.94427  -0.00000   0.00001  -0.00001   0.00001   1.94428
   A15        1.90524   0.00000  -0.00000   0.00000   0.00000   1.90524
   A16        1.90393   0.00000   0.00000   0.00002   0.00002   1.90395
   A17        1.87640  -0.00000   0.00001  -0.00001   0.00001   1.87641
   A18        1.90803  -0.00000  -0.00001  -0.00000  -0.00001   1.90802
   A19        2.17100  -0.00000  -0.00003  -0.00001  -0.00003   2.17097
   A20        2.02777   0.00000   0.00003  -0.00001   0.00002   2.02779
   A21        2.02777   0.00000   0.00003  -0.00001   0.00002   2.02779
   A22        1.92465   0.00000  -0.00001  -0.00001  -0.00002   1.92463
   A23        1.90393   0.00000   0.00000   0.00002   0.00002   1.90395
   A24        1.87640  -0.00000   0.00001  -0.00001   0.00001   1.87641
   A25        1.94427  -0.00000   0.00001  -0.00001   0.00001   1.94428
   A26        1.90524   0.00000  -0.00000   0.00000   0.00000   1.90524
   A27        1.90803  -0.00000  -0.00001  -0.00000  -0.00001   1.90802
   A28        1.98237  -0.00000   0.00001  -0.00001  -0.00000   1.98237
   A29        1.89326   0.00000  -0.00000   0.00001   0.00000   1.89327
   A30        1.94007  -0.00000   0.00000  -0.00001  -0.00000   1.94007
   A31        1.89637  -0.00000  -0.00001   0.00000  -0.00001   1.89637
   A32        1.88451   0.00000   0.00000   0.00000   0.00000   1.88452
   A33        1.86318  -0.00000   0.00000   0.00000   0.00000   1.86319
   A34        1.91484   0.00000  -0.00001   0.00001   0.00000   1.91484
   A35        1.91652  -0.00000   0.00000  -0.00001  -0.00001   1.91651
   A36        1.96139  -0.00000   0.00001   0.00000   0.00001   1.96140
   A37        1.89457   0.00000  -0.00000  -0.00000  -0.00000   1.89457
   A38        1.89217  -0.00000  -0.00000   0.00000   0.00000   1.89217
   A39        1.88291   0.00000  -0.00000  -0.00000  -0.00000   1.88290
   A40        1.92970   0.00000   0.00001  -0.00000   0.00001   1.92971
   A41        1.90730  -0.00000  -0.00000  -0.00000  -0.00001   1.90729
   A42        1.94245  -0.00000   0.00001  -0.00000   0.00000   1.94246
   A43        1.89166   0.00000   0.00000  -0.00000   0.00000   1.89166
   A44        1.89438   0.00000   0.00001  -0.00000   0.00000   1.89439
   A45        1.89736  -0.00000  -0.00002   0.00001  -0.00001   1.89735
   A46        1.91652  -0.00000   0.00000  -0.00001  -0.00001   1.91651
   A47        1.91484   0.00000  -0.00001   0.00001   0.00000   1.91484
   A48        1.96139  -0.00000   0.00001   0.00000   0.00001   1.96140
   A49        1.89457   0.00000  -0.00000  -0.00000  -0.00000   1.89457
   A50        1.88291   0.00000  -0.00000  -0.00000  -0.00000   1.88290
   A51        1.89217  -0.00000   0.00000   0.00000   0.00000   1.89217
   A52        1.92970   0.00000   0.00001  -0.00000   0.00001   1.92971
   A53        1.94245  -0.00000   0.00001  -0.00000   0.00000   1.94246
   A54        1.90730  -0.00000  -0.00000  -0.00000  -0.00001   1.90729
   A55        1.89438   0.00000   0.00001  -0.00000   0.00000   1.89439
   A56        1.89166   0.00000   0.00000  -0.00000   0.00000   1.89166
   A57        1.89736  -0.00000  -0.00002   0.00001  -0.00001   1.89735
    D1        1.02913  -0.00000  -0.00002  -0.00001  -0.00003   1.02911
    D2       -3.12467  -0.00000  -0.00001  -0.00002  -0.00002  -3.12469
    D3       -1.08129  -0.00000  -0.00000  -0.00002  -0.00002  -1.08131
    D4        3.12782   0.00000  -0.00001  -0.00001  -0.00002   3.12780
    D5       -1.02598   0.00000  -0.00001  -0.00001  -0.00002  -1.02600
    D6        1.01739   0.00000  -0.00000  -0.00001  -0.00001   1.01738
    D7       -1.10951   0.00000  -0.00002  -0.00001  -0.00003  -1.10954
    D8        1.01988  -0.00000  -0.00001  -0.00001  -0.00002   1.01985
    D9        3.06325  -0.00000  -0.00001  -0.00001  -0.00002   3.06323
   D10       -1.02913   0.00000   0.00002   0.00001   0.00003  -1.02911
   D11        1.08129   0.00000   0.00000   0.00002   0.00002   1.08131
   D12        3.12467   0.00000   0.00001   0.00002   0.00002   3.12469
   D13       -3.12782  -0.00000   0.00001   0.00001   0.00002  -3.12780
   D14       -1.01739  -0.00000   0.00000   0.00001   0.00001  -1.01738
   D15        1.02598  -0.00000   0.00001   0.00001   0.00002   1.02600
   D16        1.10951  -0.00000   0.00002   0.00001   0.00003   1.10953
   D17       -3.06325   0.00000   0.00001   0.00001   0.00002  -3.06323
   D18       -1.01988   0.00000   0.00001   0.00001   0.00002  -1.01985
   D19       -0.79348  -0.00000  -0.00004  -0.00002  -0.00006  -0.79354
   D20        1.32320  -0.00000  -0.00004  -0.00000  -0.00004   1.32315
   D21       -2.85122  -0.00000  -0.00005  -0.00001  -0.00006  -2.85128
   D22       -2.95342  -0.00000  -0.00005  -0.00001  -0.00006  -2.95348
   D23       -0.83674   0.00000  -0.00005   0.00001  -0.00004  -0.83678
   D24        1.27203  -0.00000  -0.00006   0.00000  -0.00006   1.27198
   D25        1.31519  -0.00000  -0.00005  -0.00001  -0.00006   1.31513
   D26       -2.85131   0.00000  -0.00005   0.00000  -0.00004  -2.85136
   D27       -0.74254  -0.00000  -0.00005  -0.00000  -0.00006  -0.74260
   D28        0.61296   0.00000   0.00010   0.00007   0.00016   0.61312
   D29       -2.89856   0.00000   0.00019   0.00000   0.00019  -2.89837
   D30       -1.52757   0.00000   0.00009   0.00006   0.00015  -1.52742
   D31        1.24410   0.00000   0.00018   0.00000   0.00018   1.24428
   D32        2.68837   0.00000   0.00010   0.00006   0.00016   2.68852
   D33       -0.82315   0.00000   0.00018  -0.00000   0.00018  -0.82297
   D34        1.18531  -0.00000   0.00009  -0.00003   0.00006   1.18537
   D35       -3.01698  -0.00000   0.00009  -0.00003   0.00006  -3.01693
   D36       -0.91055  -0.00000   0.00009  -0.00002   0.00007  -0.91048
   D37       -2.96916   0.00000   0.00009  -0.00003   0.00006  -2.96910
   D38       -0.88827   0.00000   0.00008  -0.00003   0.00005  -0.88822
   D39        1.21817   0.00000   0.00008  -0.00002   0.00006   1.21823
   D40       -0.92182  -0.00000   0.00009  -0.00003   0.00007  -0.92176
   D41        1.15907   0.00000   0.00009  -0.00003   0.00006   1.15913
   D42       -3.01768   0.00000   0.00009  -0.00002   0.00007  -3.01761
   D43        1.11683   0.00000   0.00004  -0.00000   0.00003   1.11686
   D44       -3.05954   0.00000   0.00005  -0.00001   0.00004  -3.05950
   D45       -0.96388   0.00000   0.00003   0.00000   0.00003  -0.96385
   D46       -0.97100  -0.00000   0.00005   0.00001   0.00005  -0.97095
   D47        1.13582   0.00000   0.00006  -0.00000   0.00006   1.13588
   D48       -3.05170  -0.00000   0.00004   0.00001   0.00005  -3.05165
   D49       -3.03560  -0.00000   0.00004  -0.00001   0.00003  -3.03557
   D50       -0.92878   0.00000   0.00006  -0.00002   0.00004  -0.92874
   D51        1.16688  -0.00000   0.00004  -0.00001   0.00003   1.16691
   D52       -0.61296  -0.00000  -0.00010  -0.00007  -0.00016  -0.61312
   D53        1.52757  -0.00000  -0.00009  -0.00006  -0.00015   1.52742
   D54       -2.68837  -0.00000  -0.00010  -0.00006  -0.00016  -2.68852
   D55        2.89856  -0.00000  -0.00019  -0.00000  -0.00019   2.89837
   D56       -1.24410  -0.00000  -0.00018   0.00000  -0.00018  -1.24428
   D57        0.82315  -0.00000  -0.00018   0.00000  -0.00018   0.82297
   D58        0.79348   0.00000   0.00004   0.00002   0.00006   0.79354
   D59       -1.31519   0.00000   0.00005   0.00001   0.00006  -1.31513
   D60        2.95342   0.00000   0.00005   0.00001   0.00006   2.95348
   D61       -1.32319   0.00000   0.00004   0.00000   0.00004  -1.32315
   D62        2.85132  -0.00000   0.00005  -0.00000   0.00004   2.85136
   D63        0.83674  -0.00000   0.00005  -0.00001   0.00004   0.83678
   D64        2.85122   0.00000   0.00005   0.00001   0.00006   2.85128
   D65        0.74255   0.00000   0.00005   0.00000   0.00006   0.74260
   D66       -1.27203   0.00000   0.00006  -0.00000   0.00006  -1.27197
   D67        0.88827  -0.00000  -0.00007   0.00002  -0.00005   0.88822
   D68        2.96916  -0.00000  -0.00008   0.00002  -0.00006   2.96910
   D69       -1.21817  -0.00000  -0.00008   0.00002  -0.00006  -1.21823
   D70        3.01698   0.00000  -0.00008   0.00003  -0.00006   3.01693
   D71       -1.18531   0.00000  -0.00009   0.00002  -0.00006  -1.18537
   D72        0.91055   0.00000  -0.00008   0.00002  -0.00007   0.91048
   D73       -1.15907  -0.00000  -0.00008   0.00002  -0.00006  -1.15913
   D74        0.92182   0.00000  -0.00009   0.00002  -0.00007   0.92176
   D75        3.01768  -0.00000  -0.00008   0.00001  -0.00007   3.01761
   D76        0.97100   0.00000  -0.00004  -0.00001  -0.00005   0.97095
   D77        3.05170   0.00000  -0.00004  -0.00001  -0.00005   3.05165
   D78       -1.13582  -0.00000  -0.00006  -0.00000  -0.00006  -1.13588
   D79       -1.11683  -0.00000  -0.00003   0.00000  -0.00003  -1.11686
   D80        0.96388  -0.00000  -0.00003  -0.00000  -0.00003   0.96385
   D81        3.05954  -0.00000  -0.00005   0.00001  -0.00004   3.05950
   D82        3.03560   0.00000  -0.00004   0.00001  -0.00003   3.03557
   D83       -1.16688   0.00000  -0.00004   0.00001  -0.00003  -1.16691
   D84        0.92878  -0.00000  -0.00006   0.00002  -0.00004   0.92874
         Item               Value     Threshold  Converged?
 Maximum Force            0.000002     0.000450     YES
 RMS     Force            0.000001     0.000300     YES
 Maximum Displacement     0.000654     0.001800     YES
 RMS     Displacement     0.000087     0.001200     YES
 Predicted change in Energy=-1.124705D-09
 Optimization completed.
    -- Stationary point found.
                           ----------------------------
                           !   Optimized Parameters   !
                           ! (Angstroms and Degrees)  !
 --------------------------                            --------------------------
 ! Name  Definition              Value          Derivative Info.                !
 --------------------------------------------------------------------------------
 ! R1    R(1,2)                  1.5228         -DE/DX =    0.0                 !
 ! R2    R(1,6)                  1.5228         -DE/DX =    0.0                 !
 ! R3    R(1,12)                 1.1029         -DE/DX =    0.0                 !
 ! R4    R(1,13)                 1.104          -DE/DX =    0.0                 !
 ! R5    R(2,3)                  1.5368         -DE/DX =    0.0                 !
 ! R6    R(2,14)                 1.1035         -DE/DX =    0.0                 !
 ! R7    R(2,15)                 1.1054         -DE/DX =    0.0                 !
 ! R8    R(3,4)                  1.491          -DE/DX =    0.0                 !
 ! R9    R(3,10)                 1.5381         -DE/DX =    0.0                 !
 ! R10   R(3,11)                 1.5321         -DE/DX =    0.0                 !
 ! R11   R(4,5)                  1.491          -DE/DX =    0.0                 !
 ! R12   R(4,9)                  1.2673         -DE/DX =    0.0                 !
 ! R13   R(5,6)                  1.5368         -DE/DX =    0.0                 !
 ! R14   R(5,7)                  1.5381         -DE/DX =    0.0                 !
 ! R15   R(5,8)                  1.5321         -DE/DX =    0.0                 !
 ! R16   R(6,16)                 1.1054         -DE/DX =    0.0                 !
 ! R17   R(6,17)                 1.1035         -DE/DX =    0.0                 !
 ! R18   R(7,18)                 1.1024         -DE/DX =    0.0                 !
 ! R19   R(7,19)                 1.1032         -DE/DX =    0.0                 !
 ! R20   R(7,20)                 1.1016         -DE/DX =    0.0                 !
 ! R21   R(8,21)                 1.1034         -DE/DX =    0.0                 !
 ! R22   R(8,22)                 1.1031         -DE/DX =    0.0                 !
 ! R23   R(8,23)                 1.1001         -DE/DX =    0.0                 !
 ! R24   R(10,24)                1.1032         -DE/DX =    0.0                 !
 ! R25   R(10,25)                1.1024         -DE/DX =    0.0                 !
 ! R26   R(10,26)                1.1016         -DE/DX =    0.0                 !
 ! R27   R(11,27)                1.1034         -DE/DX =    0.0                 !
 ! R28   R(11,28)                1.1001         -DE/DX =    0.0                 !
 ! R29   R(11,29)                1.1031         -DE/DX =    0.0                 !
 ! A1    A(2,1,6)              109.0187         -DE/DX =    0.0                 !
 ! A2    A(2,1,12)             109.7566         -DE/DX =    0.0                 !
 ! A3    A(2,1,13)             110.9813         -DE/DX =    0.0                 !
 ! A4    A(6,1,12)             109.7566         -DE/DX =    0.0                 !
 ! A5    A(6,1,13)             110.9813         -DE/DX =    0.0                 !
 ! A6    A(12,1,13)            106.3136         -DE/DX =    0.0                 !
 ! A7    A(1,2,3)              113.5813         -DE/DX =    0.0                 !
 ! A8    A(1,2,14)             111.1577         -DE/DX =    0.0                 !
 ! A9    A(1,2,15)             108.4761         -DE/DX =    0.0                 !
 ! A10   A(3,2,14)             107.9747         -DE/DX =    0.0                 !
 ! A11   A(3,2,15)             108.6543         -DE/DX =    0.0                 !
 ! A12   A(14,2,15)            106.7525         -DE/DX =    0.0                 !
 ! A13   A(2,3,4)              110.2745         -DE/DX =    0.0                 !
 ! A14   A(2,3,10)             111.3986         -DE/DX =    0.0                 !
 ! A15   A(2,3,11)             109.1623         -DE/DX =    0.0                 !
 ! A16   A(4,3,10)             109.0871         -DE/DX =    0.0                 !
 ! A17   A(4,3,11)             107.5099         -DE/DX =    0.0                 !
 ! A18   A(10,3,11)            109.3222         -DE/DX =    0.0                 !
 ! A19   A(3,4,5)              124.3894         -DE/DX =    0.0                 !
 ! A20   A(3,4,9)              116.1827         -DE/DX =    0.0                 !
 ! A21   A(5,4,9)              116.1827         -DE/DX =    0.0                 !
 ! A22   A(4,5,6)              110.2745         -DE/DX =    0.0                 !
 ! A23   A(4,5,7)              109.0871         -DE/DX =    0.0                 !
 ! A24   A(4,5,8)              107.5099         -DE/DX =    0.0                 !
 ! A25   A(6,5,7)              111.3986         -DE/DX =    0.0                 !
 ! A26   A(6,5,8)              109.1623         -DE/DX =    0.0                 !
 ! A27   A(7,5,8)              109.3221         -DE/DX =    0.0                 !
 ! A28   A(1,6,5)              113.5813         -DE/DX =    0.0                 !
 ! A29   A(1,6,16)             108.4761         -DE/DX =    0.0                 !
 ! A30   A(1,6,17)             111.1577         -DE/DX =    0.0                 !
 ! A31   A(5,6,16)             108.6543         -DE/DX =    0.0                 !
 ! A32   A(5,6,17)             107.9747         -DE/DX =    0.0                 !
 ! A33   A(16,6,17)            106.7525         -DE/DX =    0.0                 !
 ! A34   A(5,7,18)             109.7123         -DE/DX =    0.0                 !
 ! A35   A(5,7,19)             109.8083         -DE/DX =    0.0                 !
 ! A36   A(5,7,20)             112.3793         -DE/DX =    0.0                 !
 ! A37   A(18,7,19)            108.551          -DE/DX =    0.0                 !
 ! A38   A(18,7,20)            108.4134         -DE/DX =    0.0                 !
 ! A39   A(19,7,20)            107.8825         -DE/DX =    0.0                 !
 ! A40   A(5,8,21)             110.5638         -DE/DX =    0.0                 !
 ! A41   A(5,8,22)             109.2804         -DE/DX =    0.0                 !
 ! A42   A(5,8,23)             111.2943         -DE/DX =    0.0                 !
 ! A43   A(21,8,22)            108.3841         -DE/DX =    0.0                 !
 ! A44   A(21,8,23)            108.5403         -DE/DX =    0.0                 !
 ! A45   A(22,8,23)            108.7107         -DE/DX =    0.0                 !
 ! A46   A(3,10,24)            109.8083         -DE/DX =    0.0                 !
 ! A47   A(3,10,25)            109.7123         -DE/DX =    0.0                 !
 ! A48   A(3,10,26)            112.3793         -DE/DX =    0.0                 !
 ! A49   A(24,10,25)           108.551          -DE/DX =    0.0                 !
 ! A50   A(24,10,26)           107.8825         -DE/DX =    0.0                 !
 ! A51   A(25,10,26)           108.4134         -DE/DX =    0.0                 !
 ! A52   A(3,11,27)            110.5638         -DE/DX =    0.0                 !
 ! A53   A(3,11,28)            111.2943         -DE/DX =    0.0                 !
 ! A54   A(3,11,29)            109.2804         -DE/DX =    0.0                 !
 ! A55   A(27,11,28)           108.5403         -DE/DX =    0.0                 !
 ! A56   A(27,11,29)           108.3841         -DE/DX =    0.0                 !
 ! A57   A(28,11,29)           108.7107         -DE/DX =    0.0                 !
 ! D1    D(6,1,2,3)             58.965          -DE/DX =    0.0                 !
 ! D2    D(6,1,2,14)          -179.0302         -DE/DX =    0.0                 !
 ! D3    D(6,1,2,15)           -61.9533         -DE/DX =    0.0                 !
 ! D4    D(12,1,2,3)           179.2107         -DE/DX =    0.0                 !
 ! D5    D(12,1,2,14)          -58.7846         -DE/DX =    0.0                 !
 ! D6    D(12,1,2,15)           58.2923         -DE/DX =    0.0                 !
 ! D7    D(13,1,2,3)           -63.5702         -DE/DX =    0.0                 !
 ! D8    D(13,1,2,14)           58.4345         -DE/DX =    0.0                 !
 ! D9    D(13,1,2,15)          175.5115         -DE/DX =    0.0                 !
 ! D10   D(2,1,6,5)            -58.9651         -DE/DX =    0.0                 !
 ! D11   D(2,1,6,16)            61.9533         -DE/DX =    0.0                 !
 ! D12   D(2,1,6,17)           179.0302         -DE/DX =    0.0                 !
 ! D13   D(12,1,6,5)          -179.2107         -DE/DX =    0.0                 !
 ! D14   D(12,1,6,16)          -58.2924         -DE/DX =    0.0                 !
 ! D15   D(12,1,6,17)           58.7846         -DE/DX =    0.0                 !
 ! D16   D(13,1,6,5)            63.5701         -DE/DX =    0.0                 !
 ! D17   D(13,1,6,16)         -175.5115         -DE/DX =    0.0                 !
 ! D18   D(13,1,6,17)          -58.4346         -DE/DX =    0.0                 !
 ! D19   D(1,2,3,4)            -45.4632         -DE/DX =    0.0                 !
 ! D20   D(1,2,3,10)            75.8135         -DE/DX =    0.0                 !
 ! D21   D(1,2,3,11)          -163.3629         -DE/DX =    0.0                 !
 ! D22   D(14,2,3,4)          -169.2183         -DE/DX =    0.0                 !
 ! D23   D(14,2,3,10)          -47.9416         -DE/DX =    0.0                 !
 ! D24   D(14,2,3,11)           72.882          -DE/DX =    0.0                 !
 ! D25   D(15,2,3,4)            75.355          -DE/DX =    0.0                 !
 ! D26   D(15,2,3,10)         -163.3683         -DE/DX =    0.0                 !
 ! D27   D(15,2,3,11)          -42.5447         -DE/DX =    0.0                 !
 ! D28   D(2,3,4,5)             35.1197         -DE/DX =    0.0                 !
 ! D29   D(2,3,4,9)           -166.0752         -DE/DX =    0.0                 !
 ! D30   D(10,3,4,5)           -87.5234         -DE/DX =    0.0                 !
 ! D31   D(10,3,4,9)            71.2817         -DE/DX =    0.0                 !
 ! D32   D(11,3,4,5)           154.032          -DE/DX =    0.0                 !
 ! D33   D(11,3,4,9)           -47.1629         -DE/DX =    0.0                 !
 ! D34   D(2,3,10,24)           67.9133         -DE/DX =    0.0                 !
 ! D35   D(2,3,10,25)         -172.8604         -DE/DX =    0.0                 !
 ! D36   D(2,3,10,26)          -52.1706         -DE/DX =    0.0                 !
 ! D37   D(4,3,10,24)         -170.1202         -DE/DX =    0.0                 !
 ! D38   D(4,3,10,25)          -50.8939         -DE/DX =    0.0                 !
 ! D39   D(4,3,10,26)           69.7959         -DE/DX =    0.0                 !
 ! D40   D(11,3,10,24)         -52.8167         -DE/DX =    0.0                 !
 ! D41   D(11,3,10,25)          66.4096         -DE/DX =    0.0                 !
 ! D42   D(11,3,10,26)        -172.9006         -DE/DX =    0.0                 !
 ! D43   D(2,3,11,27)           63.9894         -DE/DX =    0.0                 !
 ! D44   D(2,3,11,28)         -175.2989         -DE/DX =    0.0                 !
 ! D45   D(2,3,11,29)          -55.2262         -DE/DX =    0.0                 !
 ! D46   D(4,3,11,27)          -55.6342         -DE/DX =    0.0                 !
 ! D47   D(4,3,11,28)           65.0775         -DE/DX =    0.0                 !
 ! D48   D(4,3,11,29)         -174.8498         -DE/DX =    0.0                 !
 ! D49   D(10,3,11,27)        -173.9271         -DE/DX =    0.0                 !
 ! D50   D(10,3,11,28)         -53.2154         -DE/DX =    0.0                 !
 ! D51   D(10,3,11,29)          66.8573         -DE/DX =    0.0                 !
 ! D52   D(3,4,5,6)            -35.1198         -DE/DX =    0.0                 !
 ! D53   D(3,4,5,7)             87.5234         -DE/DX =    0.0                 !
 ! D54   D(3,4,5,8)           -154.0321         -DE/DX =    0.0                 !
 ! D55   D(9,4,5,6)            166.0752         -DE/DX =    0.0                 !
 ! D56   D(9,4,5,7)            -71.2817         -DE/DX =    0.0                 !
 ! D57   D(9,4,5,8)             47.1628         -DE/DX =    0.0                 !
 ! D58   D(4,5,6,1)             45.4633         -DE/DX =    0.0                 !
 ! D59   D(4,5,6,16)           -75.3549         -DE/DX =    0.0                 !
 ! D60   D(4,5,6,17)           169.2184         -DE/DX =    0.0                 !
 ! D61   D(7,5,6,1)            -75.8134         -DE/DX =    0.0                 !
 ! D62   D(7,5,6,16)           163.3683         -DE/DX =    0.0                 !
 ! D63   D(7,5,6,17)            47.9417         -DE/DX =    0.0                 !
 ! D64   D(8,5,6,1)            163.3629         -DE/DX =    0.0                 !
 ! D65   D(8,5,6,16)            42.5447         -DE/DX =    0.0                 !
 ! D66   D(8,5,6,17)           -72.882          -DE/DX =    0.0                 !
 ! D67   D(4,5,7,18)            50.8939         -DE/DX =    0.0                 !
 ! D68   D(4,5,7,19)           170.1202         -DE/DX =    0.0                 !
 ! D69   D(4,5,7,20)           -69.7959         -DE/DX =    0.0                 !
 ! D70   D(6,5,7,18)           172.8604         -DE/DX =    0.0                 !
 ! D71   D(6,5,7,19)           -67.9133         -DE/DX =    0.0                 !
 ! D72   D(6,5,7,20)            52.1706         -DE/DX =    0.0                 !
 ! D73   D(8,5,7,18)           -66.4097         -DE/DX =    0.0                 !
 ! D74   D(8,5,7,19)            52.8166         -DE/DX =    0.0                 !
 ! D75   D(8,5,7,20)           172.9005         -DE/DX =    0.0                 !
 ! D76   D(4,5,8,21)            55.6342         -DE/DX =    0.0                 !
 ! D77   D(4,5,8,22)           174.8497         -DE/DX =    0.0                 !
 ! D78   D(4,5,8,23)           -65.0776         -DE/DX =    0.0                 !
 ! D79   D(6,5,8,21)           -63.9894         -DE/DX =    0.0                 !
 ! D80   D(6,5,8,22)            55.2262         -DE/DX =    0.0                 !
 ! D81   D(6,5,8,23)           175.2988         -DE/DX =    0.0                 !
 ! D82   D(7,5,8,21)           173.9271         -DE/DX =    0.0                 !
 ! D83   D(7,5,8,22)           -66.8573         -DE/DX =    0.0                 !
 ! D84   D(7,5,8,23)            53.2154         -DE/DX =    0.0                 !
 --------------------------------------------------------------------------------
 Lowest energy point so far.  Saving SCF results.
 Largest change from initial coordinates is atom   22       0.036 Angstoms.
 Step   4 in ReCalcFC=50 IGetFC= 0 compute gradient.
 GradGradGradGradGradGradGradGradGradGradGradGradGradGradGradGradGradGrad

 Leave Link  103 at Wed Feb 28 21:01:54 2024, MaxMem=  2147483648 cpu:               1.6 elap:               0.1
 (Enter /software/gaussian-16RevA.03-el7-x86_64/g16/l202.exe)
                          Input orientation:                          
 ---------------------------------------------------------------------
 Center     Atomic      Atomic             Coordinates (Angstroms)
 Number     Number       Type             X           Y           Z
 ---------------------------------------------------------------------
      1          6           0        0.000057    2.118694   -0.000870
      2          6           0       -1.239841    1.384898   -0.493987
      3          6           0       -1.318871   -0.075251   -0.021100
      4          7           0        0.000006   -0.747842   -0.198313
      5          6           0        1.318903   -0.075300   -0.021058
      6          6           0        1.239943    1.384851   -0.493948
      7          6           0        1.734467   -0.164753    1.457116
      8          6           0        2.339371   -0.827920   -0.880966
      9          8           0       -0.000020   -2.011751   -0.106183
     10          6           0       -1.734486   -0.164689    1.457060
     11          6           0       -2.339340   -0.827831   -0.881041
     12          1           0        0.000082    3.151751   -0.386967
     13          1           0        0.000041    2.199152    1.100232
     14          1           0       -2.161527    1.898089   -0.170154
     15          1           0       -1.238853    1.399020   -1.599327
     16          1           0        1.238989    1.398972   -1.599289
     17          1           0        2.161638    1.898007   -0.170087
     18          1           0        1.658715   -1.209010    1.802117
     19          1           0        2.779963    0.167985    1.572324
     20          1           0        1.105886    0.463310    2.108265
     21          1           0        2.005028   -0.869753   -1.931617
     22          1           0        3.306854   -0.299215   -0.844531
     23          1           0        2.485462   -1.856509   -0.519147
     24          1           0       -2.779973    0.168089    1.572237
     25          1           0       -1.658784   -1.208950    1.802063
     26          1           0       -1.105901    0.463349    2.108230
     27          1           0       -2.004965   -0.869675   -1.931682
     28          1           0       -2.485481   -1.856415   -0.519229
     29          1           0       -3.306804   -0.299090   -0.844637
 ---------------------------------------------------------------------
                    Distance matrix (angstroms):
                    1          2          3          4          5
     1  C    0.000000
     2  C    1.522816   0.000000
     3  C    2.559956   1.536848   0.000000
     4  N    2.873327   2.484597   1.491046   0.000000
     5  C    2.559956   2.983792   2.637774   1.491047   0.000000
     6  C    1.522816   2.479784   2.983791   2.484597   1.536848
     7  C    3.216835   3.880042   3.393524   2.467548   1.538081
     8  C    3.863870   4.225763   3.832573   2.438249   1.532068
     9  O    4.131787   3.636589   2.344492   1.267263   2.344492
    10  C    3.216836   2.540173   1.538081   2.467547   3.393524
    11  C    3.863869   2.500976   1.532068   2.438249   3.832573
    12  H    1.102850   2.161165   3.505287   3.904154   3.505287
    13  H    1.104037   2.177579   2.858290   3.220402   2.858290
    14  H    2.179396   1.103511   2.150896   3.416719   4.003734
    15  H    2.146600   1.105431   2.161175   2.847214   3.347636
    16  H    2.146600   2.714128   3.347635   2.847213   2.161175
    17  H    2.179396   3.455177   4.003734   3.416719   2.150896
    18  H    4.132254   4.516867   3.670906   2.639263   2.173647
    19  H    3.742738   4.680742   4.404385   3.420827   2.175489
    20  H    2.900276   3.622634   3.271650   2.830223   2.206693
    21  H    4.083933   4.204689   3.915305   2.653172   2.179944
    22  H    4.182458   4.861230   4.703778   3.399133   2.163376
    23  H    4.716787   4.938141   4.230116   2.740359   2.186699
    24  H    3.742738   2.849897   2.175490   3.420827   4.404385
    25  H    4.132255   3.489327   2.173647   2.639263   3.670906
    26  H    2.900278   2.763824   2.206693   2.830222   3.271649
    27  H    4.083932   2.781274   2.179944   2.653172   3.915305
    28  H    4.716787   3.472516   2.186699   2.740358   4.230115
    29  H    4.182458   2.689072   2.163376   3.399133   4.703778
                    6          7          8          9         10
     6  C    0.000000
     7  C    2.540173   0.000000
     8  C    2.500976   2.504461   0.000000
     9  O    3.636589   2.977205   2.733952   0.000000
    10  C    3.880043   3.468953   4.743685   2.977204   0.000000
    11  C    4.225763   4.743686   4.678711   2.733952   2.504461
    12  H    2.161165   4.172281   4.642638   5.171131   4.172282
    13  H    2.177579   2.953582   4.308221   4.380313   2.953583
    14  H    3.455177   4.699159   5.309846   4.468004   2.661812
    15  H    2.714128   4.541790   4.275394   3.923971   3.468767
    16  H    1.105431   3.468767   2.585706   3.923970   4.541790
    17  H    1.103511   2.661812   2.822696   4.468004   4.699160
    18  H    3.489327   1.102378   2.794183   2.652810   3.566999
    19  H    2.849896   1.103200   2.684135   3.911130   4.528157
    20  H    2.763824   1.101623   3.481991   3.500391   2.980967
    21  H    2.781275   3.471849   1.103360   2.942207   5.095509
    22  H    2.689073   2.790709   1.103122   3.796492   5.543512
    23  H    3.472516   2.707701   1.100114   2.524333   4.957379
    24  H    4.680743   4.528157   5.763499   3.911130   1.103200
    25  H    4.516867   3.567000   4.830018   2.652809   1.102378
    26  H    3.622634   2.980965   4.740524   3.500389   1.101623
    27  H    4.204687   5.095509   4.469788   2.942208   3.471850
    28  H    4.938140   4.957380   4.946499   2.524332   2.707701
    29  H    4.861229   5.543512   5.671003   3.796491   2.790709
                   11         12         13         14         15
    11  C    0.000000
    12  H    4.642637   0.000000
    13  H    4.308221   1.766127   0.000000
    14  H    2.822697   2.508233   2.525251   0.000000
    15  H    2.585705   2.465125   3.076148   1.772832   0.000000
    16  H    4.275392   2.465126   3.076148   3.722237   2.477842
    17  H    5.309845   2.508233   2.525252   4.323165   3.722238
    18  H    4.830019   5.153581   3.854791   5.304542   5.173736
    19  H    5.763499   4.524315   3.475123   5.517954   5.265520
    20  H    4.740525   3.831018   2.291761   4.233884   4.485487
    21  H    4.469788   4.751657   4.757127   5.303195   3.972469
    22  H    5.671003   4.801382   4.578095   5.931789   4.910923
    23  H    4.946500   5.592606   5.024747   5.984422   5.063178
    24  H    2.684136   4.524315   3.475124   2.532055   3.734844
    25  H    2.794183   5.153582   3.854792   3.714307   4.306658
    26  H    3.481991   3.831020   2.291763   2.892034   3.826113
    27  H    1.103360   4.751655   4.757126   3.284511   2.417513
    28  H    1.100114   5.592606   5.024748   3.784587   3.649459
    29  H    1.103122   4.801382   4.578095   2.567914   2.780209
                   16         17         18         19         20
    16  H    0.000000
    17  H    1.772832   0.000000
    18  H    4.306658   3.714307   0.000000
    19  H    3.734844   2.532055   1.790564   0.000000
    20  H    3.826112   2.892033   1.787737   1.782410   0.000000
    21  H    2.417514   3.284511   3.765076   3.735643   4.348122
    22  H    2.780210   2.567914   3.247897   2.517356   3.760945
    23  H    3.649460   3.784586   2.547750   2.925672   3.766707
    24  H    5.265520   5.517955   4.653085   5.559936   3.933749
    25  H    5.173736   5.304544   3.317499   4.653086   3.245553
    26  H    4.485487   4.233885   3.245550   3.933749   2.211787
    27  H    3.972466   5.303194   5.242037   6.020825   5.270239
    28  H    5.063176   5.984421   4.793968   6.016451   5.018243
    29  H    4.910922   5.931789   5.699969   6.565714   5.364021
                   21         22         23         24         25
    21  H    0.000000
    22  H    1.789419   0.000000
    23  H    1.788735   1.790453   0.000000
    24  H    6.020825   6.565714   6.016451   0.000000
    25  H    5.242036   5.699969   4.793967   1.790564   0.000000
    26  H    5.270238   5.364020   5.018240   1.782410   1.787736
    27  H    4.009993   5.451857   4.809680   3.735644   3.765076
    28  H    4.809679   6.006815   4.970942   2.925674   2.547750
    29  H    5.451857   6.613658   6.006816   2.517357   3.247897
                   26         27         28         29
    26  H    0.000000
    27  H    4.348121   0.000000
    28  H    3.766707   1.788735   0.000000
    29  H    3.760946   1.789419   1.790453   0.000000
 Symmetry turned off by external request.
 Stoichiometry    C9H18NO(2)
 Framework group  C1[X(C9H18NO)]
 Deg. of freedom    81
 Full point group                 C1      NOp   1
 Rotational constants (GHZ):           1.4843674           1.0670575           0.8585899
 Leave Link  202 at Wed Feb 28 21:01:55 2024, MaxMem=  2147483648 cpu:               2.6 elap:               0.1
 (Enter /software/gaussian-16RevA.03-el7-x86_64/g16/l601.exe)
 Copying SCF densities to generalized density rwf, IOpCl= 1 IROHF=0.

 **********************************************************************

            Population analysis using the SCF density.

 **********************************************************************

 Alpha  occ. eigenvalues --  -19.25099 -14.52861 -10.34323 -10.34316 -10.29249
 Alpha  occ. eigenvalues --  -10.29247 -10.29153 -10.28431 -10.28426 -10.28125
 Alpha  occ. eigenvalues --  -10.28125  -1.19446  -0.96401  -0.91547  -0.86062
 Alpha  occ. eigenvalues --   -0.80954  -0.78587  -0.77528  -0.77051  -0.69035
 Alpha  occ. eigenvalues --   -0.69029  -0.60572  -0.57833  -0.57322  -0.56628
 Alpha  occ. eigenvalues --   -0.55114  -0.53082  -0.51345  -0.51342  -0.49357
 Alpha  occ. eigenvalues --   -0.48923  -0.47375  -0.47345  -0.45838  -0.45489
 Alpha  occ. eigenvalues --   -0.45020  -0.43800  -0.43338  -0.41675  -0.40920
 Alpha  occ. eigenvalues --   -0.40344  -0.39310  -0.34041  -0.27393
 Alpha virt. eigenvalues --    0.12730   0.15564   0.15756   0.16271   0.16778
 Alpha virt. eigenvalues --    0.19086   0.19728   0.21307   0.21568   0.22129
 Alpha virt. eigenvalues --    0.22379   0.22672   0.23482   0.24578   0.25170
 Alpha virt. eigenvalues --    0.25626   0.26188   0.27008   0.27556   0.28317
 Alpha virt. eigenvalues --    0.28517   0.29423   0.30731   0.32247   0.33705
 Alpha virt. eigenvalues --    0.34474   0.35381   0.37331   0.40025   0.47740
 Alpha virt. eigenvalues --    0.48612   0.48989   0.50426   0.52108   0.54079
 Alpha virt. eigenvalues --    0.56295   0.56854   0.61884   0.62047   0.64697
 Alpha virt. eigenvalues --    0.65393   0.67801   0.68286   0.70069   0.71637
 Alpha virt. eigenvalues --    0.72454   0.73431   0.73810   0.74428   0.74893
 Alpha virt. eigenvalues --    0.77209   0.77472   0.77615   0.77833   0.78541
 Alpha virt. eigenvalues --    0.80120   0.80382   0.80567   0.81006   0.81161
 Alpha virt. eigenvalues --    0.81250   0.81643   0.82742   0.84011   0.84399
 Alpha virt. eigenvalues --    0.84518   0.85181   0.85547   0.86426   0.86516
 Alpha virt. eigenvalues --    0.89005   0.91075   0.94828   0.98314   0.98409
 Alpha virt. eigenvalues --    1.04325   1.05011   1.07104   1.11266   1.15405
 Alpha virt. eigenvalues --    1.16925   1.19432   1.23600   1.23786   1.26296
 Alpha virt. eigenvalues --    1.28066   1.32771   1.35928   1.36155   1.46084
 Alpha virt. eigenvalues --    1.51177   1.51596   1.58917   1.61222   1.72074
 Alpha virt. eigenvalues --    1.81041   1.84225   1.84695   1.86898   1.87823
 Alpha virt. eigenvalues --    1.90692   1.91951   1.93182   1.95101   1.97018
 Alpha virt. eigenvalues --    1.99280   1.99340   2.01628   2.06232   2.06571
 Alpha virt. eigenvalues --    2.10060   2.12117   2.13858   2.16275   2.17753
 Alpha virt. eigenvalues --    2.21553   2.23053   2.24652   2.25761   2.26234
 Alpha virt. eigenvalues --    2.27811   2.27974   2.35632   2.35907   2.39458
 Alpha virt. eigenvalues --    2.39726   2.43832   2.44463   2.47277   2.51117
 Alpha virt. eigenvalues --    2.54544   2.61899   2.67446   2.71027   2.73508
 Alpha virt. eigenvalues --    2.75862   2.76059   2.80966   2.81032   2.81579
 Alpha virt. eigenvalues --    2.86279   2.96917   3.08340   3.24326   3.43563
 Alpha virt. eigenvalues --    3.83302
  Beta  occ. eigenvalues --  -19.23874 -14.51860 -10.34363 -10.34357 -10.29244
  Beta  occ. eigenvalues --  -10.29241 -10.29154 -10.28377 -10.28373 -10.28106
  Beta  occ. eigenvalues --  -10.28105  -1.16895  -0.95494  -0.91414  -0.85544
  Beta  occ. eigenvalues --   -0.79517  -0.78374  -0.77414  -0.77024  -0.68791
  Beta  occ. eigenvalues --   -0.68610  -0.59848  -0.57107  -0.57061  -0.55097
  Beta  occ. eigenvalues --   -0.53309  -0.53005  -0.51286  -0.50901  -0.48684
  Beta  occ. eigenvalues --   -0.48513  -0.47259  -0.47006  -0.45246  -0.44970
  Beta  occ. eigenvalues --   -0.44845  -0.43296  -0.41821  -0.41514  -0.40792
  Beta  occ. eigenvalues --   -0.39247  -0.38394  -0.32700
  Beta virt. eigenvalues --    0.02552   0.12778   0.15574   0.15778   0.16523
  Beta virt. eigenvalues --    0.16815   0.19162   0.19817   0.21521   0.21575
  Beta virt. eigenvalues --    0.22147   0.22524   0.22694   0.23737   0.24625
  Beta virt. eigenvalues --    0.25195   0.25808   0.26260   0.27146   0.27846
  Beta virt. eigenvalues --    0.28346   0.28542   0.29929   0.30922   0.32727
  Beta virt. eigenvalues --    0.33727   0.34667   0.35522   0.37675   0.41307
  Beta virt. eigenvalues --    0.47901   0.48624   0.49107   0.50502   0.52179
  Beta virt. eigenvalues --    0.54661   0.56749   0.56993   0.62167   0.62198
  Beta virt. eigenvalues --    0.64934   0.65662   0.67847   0.68463   0.70225
  Beta virt. eigenvalues --    0.71690   0.72467   0.73468   0.73856   0.74598
  Beta virt. eigenvalues --    0.74947   0.77238   0.77561   0.77615   0.77912
  Beta virt. eigenvalues --    0.78621   0.80198   0.80413   0.80723   0.81047
  Beta virt. eigenvalues --    0.81238   0.81286   0.81762   0.82849   0.84044
  Beta virt. eigenvalues --    0.84501   0.84568   0.85285   0.85606   0.86490
  Beta virt. eigenvalues --    0.86561   0.89055   0.91167   0.94861   0.98425
  Beta virt. eigenvalues --    0.98856   1.04959   1.05868   1.08342   1.11537
  Beta virt. eigenvalues --    1.15452   1.18646   1.19641   1.24014   1.25159
  Beta virt. eigenvalues --    1.27005   1.28332   1.33446   1.36202   1.36736
  Beta virt. eigenvalues --    1.46250   1.51697   1.51961   1.59599   1.61527
  Beta virt. eigenvalues --    1.72303   1.81088   1.84667   1.84857   1.87918
  Beta virt. eigenvalues --    1.88095   1.90956   1.92458   1.93345   1.95564
  Beta virt. eigenvalues --    1.97245   1.99312   1.99505   2.01727   2.06315
  Beta virt. eigenvalues --    2.06681   2.10213   2.12177   2.13916   2.16722
  Beta virt. eigenvalues --    2.17837   2.21980   2.23197   2.24729   2.25827
  Beta virt. eigenvalues --    2.26874   2.28098   2.28169   2.36020   2.36449
  Beta virt. eigenvalues --    2.39624   2.39963   2.44298   2.44962   2.47690
  Beta virt. eigenvalues --    2.51864   2.54611   2.62610   2.68416   2.71911
  Beta virt. eigenvalues --    2.74320   2.76689   2.78613   2.81365   2.82899
  Beta virt. eigenvalues --    2.83313   2.86329   2.98280   3.10095   3.28361
  Beta virt. eigenvalues --    3.44473   3.85134
          Condensed to atoms (all electrons):
               1          2          3          4          5          6
     1  C    4.805994   0.403896  -0.047778  -0.009152  -0.047778   0.403896
     2  C    0.403896   4.987591   0.330205  -0.041152   0.003516  -0.067850
     3  C   -0.047778   0.330205   5.106684   0.239201  -0.102580   0.003516
     4  N   -0.009152  -0.041152   0.239201   6.710946   0.239201  -0.041152
     5  C   -0.047778   0.003516  -0.102580   0.239201   5.106683   0.330205
     6  C    0.403896  -0.067850   0.003516  -0.041152   0.330205   4.987590
     7  C   -0.011039   0.001116  -0.005690  -0.059542   0.405159  -0.077176
     8  C    0.010758  -0.002241   0.009648  -0.060572   0.393425  -0.065019
     9  O   -0.000141   0.006406  -0.068823   0.215095  -0.068823   0.006406
    10  C   -0.011039  -0.077176   0.405159  -0.059542  -0.005690   0.001116
    11  C    0.010758  -0.065019   0.393425  -0.060572   0.009648  -0.002241
    12  H    0.366972  -0.015460   0.007204   0.000028   0.007204  -0.015460
    13  H    0.376673  -0.026952  -0.006101  -0.002445  -0.006101  -0.026952
    14  H   -0.015391   0.360837  -0.015588   0.004681  -0.000234   0.008099
    15  H   -0.027363   0.358738  -0.014746  -0.002269  -0.004084  -0.000368
    16  H   -0.027363  -0.000368  -0.004084  -0.002269  -0.014746   0.358738
    17  H   -0.015391   0.008099  -0.000234   0.004681  -0.015588   0.360837
    18  H   -0.000420  -0.000097   0.000297  -0.008908  -0.017039   0.009753
    19  H   -0.000038   0.000004  -0.000069   0.005406  -0.020655  -0.003570
    20  H    0.004514  -0.001179   0.000887  -0.002606  -0.015608  -0.007452
    21  H   -0.000329   0.000132  -0.000058   0.001590  -0.013145  -0.008330
    22  H    0.000328  -0.000038  -0.000011   0.005414  -0.025636  -0.003591
    23  H   -0.000344  -0.000115   0.000688  -0.008618  -0.014281   0.008679
    24  H   -0.000038  -0.003570  -0.020655   0.005406  -0.000069   0.000004
    25  H   -0.000420   0.009753  -0.017039  -0.008908   0.000297  -0.000097
    26  H    0.004514  -0.007452  -0.015608  -0.002606   0.000887  -0.001179
    27  H   -0.000329  -0.008331  -0.013145   0.001590  -0.000058   0.000132
    28  H   -0.000344   0.008679  -0.014281  -0.008618   0.000688  -0.000115
    29  H    0.000328  -0.003591  -0.025636   0.005414  -0.000011  -0.000038
               7          8          9         10         11         12
     1  C   -0.011039   0.010758  -0.000141  -0.011039   0.010758   0.366972
     2  C    0.001116  -0.002241   0.006406  -0.077176  -0.065019  -0.015460
     3  C   -0.005690   0.009648  -0.068823   0.405159   0.393425   0.007204
     4  N   -0.059542  -0.060572   0.215095  -0.059542  -0.060572   0.000028
     5  C    0.405159   0.393425  -0.068823  -0.005690   0.009648   0.007204
     6  C   -0.077176  -0.065019   0.006406   0.001116  -0.002241  -0.015460
     7  C    4.971191  -0.081817  -0.008996   0.002700  -0.000681  -0.000273
     8  C   -0.081817   4.932167   0.007126  -0.000681   0.000009  -0.000267
     9  O   -0.008996   0.007126   8.208373  -0.008996   0.007126   0.000010
    10  C    0.002700  -0.000681  -0.008996   4.971191  -0.081817  -0.000273
    11  C   -0.000681   0.000009   0.007126  -0.081817   4.932166  -0.000267
    12  H   -0.000273  -0.000267   0.000010  -0.000273  -0.000267   0.576759
    13  H    0.004374   0.000062  -0.000047   0.004374   0.000062  -0.025648
    14  H   -0.000012   0.000037  -0.000123  -0.004325  -0.004672  -0.003869
    15  H    0.000299  -0.000230  -0.000216   0.009328  -0.007658  -0.006582
    16  H    0.009328  -0.007658  -0.000216   0.000299  -0.000230  -0.006582
    17  H   -0.004325  -0.004672  -0.000123  -0.000012   0.000037  -0.003869
    18  H    0.369849  -0.008187   0.014854   0.000789  -0.000136   0.000013
    19  H    0.377319  -0.002157  -0.000000   0.000043   0.000018  -0.000006
    20  H    0.378176   0.007184  -0.000203   0.000301   0.000016  -0.000183
    21  H    0.008740   0.370264  -0.001284   0.000051  -0.000112  -0.000023
    22  H   -0.003641   0.380308   0.000744   0.000015   0.000004  -0.000012
    23  H   -0.005744   0.373108   0.015416   0.000004  -0.000042   0.000008
    24  H    0.000043   0.000018  -0.000000   0.377319  -0.002157  -0.000006
    25  H    0.000789  -0.000136   0.014854   0.369849  -0.008187   0.000013
    26  H    0.000301   0.000016  -0.000203   0.378175   0.007184  -0.000183
    27  H    0.000051  -0.000112  -0.001284   0.008740   0.370264  -0.000023
    28  H    0.000004  -0.000042   0.015416  -0.005744   0.373108   0.000008
    29  H    0.000015   0.000004   0.000744  -0.003641   0.380308  -0.000012
              13         14         15         16         17         18
     1  C    0.376673  -0.015391  -0.027363  -0.027363  -0.015391  -0.000420
     2  C   -0.026952   0.360837   0.358738  -0.000368   0.008099  -0.000097
     3  C   -0.006101  -0.015588  -0.014746  -0.004084  -0.000234   0.000297
     4  N   -0.002445   0.004681  -0.002269  -0.002269   0.004681  -0.008908
     5  C   -0.006101  -0.000234  -0.004084  -0.014746  -0.015588  -0.017039
     6  C   -0.026952   0.008099  -0.000368   0.358738   0.360837   0.009753
     7  C    0.004374  -0.000012   0.000299   0.009328  -0.004325   0.369849
     8  C    0.000062   0.000037  -0.000230  -0.007658  -0.004672  -0.008187
     9  O   -0.000047  -0.000123  -0.000216  -0.000216  -0.000123   0.014854
    10  C    0.004374  -0.004325   0.009328   0.000299  -0.000012   0.000789
    11  C    0.000062  -0.004672  -0.007658  -0.000230   0.000037  -0.000136
    12  H   -0.025648  -0.003869  -0.006582  -0.006582  -0.003869   0.000013
    13  H    0.585971  -0.005266   0.006778   0.006778  -0.005266  -0.000262
    14  H   -0.005266   0.573929  -0.024191   0.000011  -0.000302   0.000005
    15  H    0.006778  -0.024191   0.594486   0.006231   0.000011   0.000004
    16  H    0.006778   0.000011   0.006231   0.594487  -0.024191  -0.000321
    17  H   -0.005266  -0.000302   0.000011  -0.024191   0.573929   0.000043
    18  H   -0.000262   0.000005   0.000004  -0.000321   0.000043   0.546892
    19  H   -0.000041  -0.000003  -0.000006  -0.000166   0.003576  -0.018442
    20  H    0.004412   0.000039  -0.000015   0.000006  -0.000581  -0.020020
    21  H    0.000016   0.000001   0.000073   0.007230  -0.000204  -0.000059
    22  H   -0.000027   0.000000   0.000008  -0.000855   0.003970  -0.000079
    23  H    0.000009   0.000001   0.000009   0.000065  -0.000340   0.005477
    24  H   -0.000041   0.003576  -0.000166  -0.000006  -0.000003   0.000003
    25  H   -0.000262   0.000043  -0.000321   0.000004   0.000005   0.000217
    26  H    0.004412  -0.000581   0.000006  -0.000015   0.000039  -0.000203
    27  H    0.000016  -0.000204   0.007230   0.000073   0.000001   0.000003
    28  H    0.000009  -0.000340   0.000065   0.000009   0.000001  -0.000027
    29  H   -0.000027   0.003970  -0.000855   0.000008   0.000000  -0.000002
              19         20         21         22         23         24
     1  C   -0.000038   0.004514  -0.000329   0.000328  -0.000344  -0.000038
     2  C    0.000004  -0.001179   0.000132  -0.000038  -0.000115  -0.003570
     3  C   -0.000069   0.000887  -0.000058  -0.000011   0.000688  -0.020655
     4  N    0.005406  -0.002606   0.001590   0.005414  -0.008618   0.005406
     5  C   -0.020655  -0.015608  -0.013145  -0.025636  -0.014281  -0.000069
     6  C   -0.003570  -0.007452  -0.008330  -0.003591   0.008679   0.000004
     7  C    0.377319   0.378176   0.008740  -0.003641  -0.005744   0.000043
     8  C   -0.002157   0.007184   0.370264   0.380308   0.373108   0.000018
     9  O   -0.000000  -0.000203  -0.001284   0.000744   0.015416  -0.000000
    10  C    0.000043   0.000301   0.000051   0.000015   0.000004   0.377319
    11  C    0.000018   0.000016  -0.000112   0.000004  -0.000042  -0.002157
    12  H   -0.000006  -0.000183  -0.000023  -0.000012   0.000008  -0.000006
    13  H   -0.000041   0.004412   0.000016  -0.000027   0.000009  -0.000041
    14  H   -0.000003   0.000039   0.000001   0.000000   0.000001   0.003576
    15  H   -0.000006  -0.000015   0.000073   0.000008   0.000009  -0.000166
    16  H   -0.000166   0.000006   0.007230  -0.000855   0.000065  -0.000006
    17  H    0.003576  -0.000581  -0.000204   0.003970  -0.000340  -0.000003
    18  H   -0.018442  -0.020020  -0.000059  -0.000079   0.005477   0.000003
    19  H    0.548053  -0.019048  -0.000062   0.003042  -0.000664  -0.000001
    20  H   -0.019048   0.534989  -0.000309  -0.000075   0.000019   0.000054
    21  H   -0.000062  -0.000309   0.552933  -0.017900  -0.019497  -0.000001
    22  H    0.003042  -0.000075  -0.017900   0.553995  -0.019500  -0.000000
    23  H   -0.000664   0.000019  -0.019497  -0.019500   0.538323   0.000001
    24  H   -0.000001   0.000054  -0.000001  -0.000000   0.000001   0.548053
    25  H    0.000003  -0.000203   0.000003  -0.000002  -0.000027  -0.018442
    26  H    0.000054   0.005767  -0.000004   0.000000  -0.000001  -0.019048
    27  H   -0.000001  -0.000004   0.000166   0.000003  -0.000004  -0.000062
    28  H    0.000001  -0.000001  -0.000004  -0.000001  -0.000017  -0.000664
    29  H   -0.000000   0.000000   0.000003  -0.000000  -0.000001   0.003042
              25         26         27         28         29
     1  C   -0.000420   0.004514  -0.000329  -0.000344   0.000328
     2  C    0.009753  -0.007452  -0.008331   0.008679  -0.003591
     3  C   -0.017039  -0.015608  -0.013145  -0.014281  -0.025636
     4  N   -0.008908  -0.002606   0.001590  -0.008618   0.005414
     5  C    0.000297   0.000887  -0.000058   0.000688  -0.000011
     6  C   -0.000097  -0.001179   0.000132  -0.000115  -0.000038
     7  C    0.000789   0.000301   0.000051   0.000004   0.000015
     8  C   -0.000136   0.000016  -0.000112  -0.000042   0.000004
     9  O    0.014854  -0.000203  -0.001284   0.015416   0.000744
    10  C    0.369849   0.378175   0.008740  -0.005744  -0.003641
    11  C   -0.008187   0.007184   0.370264   0.373108   0.380308
    12  H    0.000013  -0.000183  -0.000023   0.000008  -0.000012
    13  H   -0.000262   0.004412   0.000016   0.000009  -0.000027
    14  H    0.000043  -0.000581  -0.000204  -0.000340   0.003970
    15  H   -0.000321   0.000006   0.007230   0.000065  -0.000855
    16  H    0.000004  -0.000015   0.000073   0.000009   0.000008
    17  H    0.000005   0.000039   0.000001   0.000001   0.000000
    18  H    0.000217  -0.000203   0.000003  -0.000027  -0.000002
    19  H    0.000003   0.000054  -0.000001   0.000001  -0.000000
    20  H   -0.000203   0.005767  -0.000004  -0.000001   0.000000
    21  H    0.000003  -0.000004   0.000166  -0.000004   0.000003
    22  H   -0.000002   0.000000   0.000003  -0.000001  -0.000000
    23  H   -0.000027  -0.000001  -0.000004  -0.000017  -0.000001
    24  H   -0.018442  -0.019048  -0.000062  -0.000664   0.003042
    25  H    0.546892  -0.020020  -0.000059   0.005477  -0.000079
    26  H   -0.020020   0.534989  -0.000309   0.000019  -0.000075
    27  H   -0.000059  -0.000309   0.552933  -0.019497  -0.017900
    28  H    0.005477   0.000019  -0.019497   0.538323  -0.019500
    29  H   -0.000079  -0.000075  -0.017900  -0.019500   0.553995
          Atomic-Atomic Spin Densities.
               1          2          3          4          5          6
     1  C    0.016394  -0.009110   0.006458  -0.000408   0.006458  -0.009110
     2  C   -0.009110   0.002406   0.002650  -0.001254  -0.003265   0.004112
     3  C    0.006458   0.002650  -0.038549   0.016824   0.006992  -0.003265
     4  N   -0.000408  -0.001254   0.016824   0.696298   0.016824  -0.001254
     5  C    0.006458  -0.003265   0.006992   0.016824  -0.038548   0.002650
     6  C   -0.009110   0.004112  -0.003265  -0.001254   0.002650   0.002406
     7  C   -0.005741   0.001691  -0.003338  -0.019609  -0.013218   0.005344
     8  C    0.002180  -0.000618   0.000459  -0.019097  -0.002496   0.000873
     9  O   -0.000091  -0.000083  -0.002703  -0.181219  -0.002703  -0.000083
    10  C   -0.005741   0.005344  -0.013218  -0.019609  -0.003338   0.001691
    11  C    0.002180   0.000873  -0.002496  -0.019097   0.000459  -0.000618
    12  H    0.001046  -0.000494   0.000118  -0.000026   0.000118  -0.000494
    13  H   -0.002004   0.001020  -0.000755  -0.000224  -0.000755   0.001020
    14  H   -0.000247   0.000579  -0.000198   0.000002  -0.000007   0.000039
    15  H   -0.001649   0.000634  -0.000472   0.001599  -0.000191   0.000580
    16  H   -0.001649   0.000580  -0.000191   0.001599  -0.000472   0.000634
    17  H   -0.000247   0.000039  -0.000007   0.000002  -0.000198   0.000579
    18  H   -0.000223   0.000082  -0.000379  -0.004725   0.000800  -0.000034
    19  H    0.000321  -0.000061   0.000125   0.000589   0.002339  -0.000626
    20  H    0.000341  -0.000110   0.000195   0.000885   0.000836  -0.000206
    21  H   -0.000188   0.000081   0.000003   0.003139   0.001864  -0.000049
    22  H   -0.000031   0.000017  -0.000024   0.000037   0.001941  -0.000121
    23  H   -0.000005   0.000009  -0.000069   0.000250   0.000669  -0.000199
    24  H    0.000321  -0.000626   0.002339   0.000589   0.000125  -0.000061
    25  H   -0.000223  -0.000034   0.000800  -0.004725  -0.000379   0.000082
    26  H    0.000341  -0.000206   0.000836   0.000885   0.000195  -0.000110
    27  H   -0.000188  -0.000049   0.001864   0.003139   0.000003   0.000081
    28  H   -0.000005  -0.000199   0.000669   0.000250  -0.000069   0.000009
    29  H   -0.000031  -0.000121   0.001941   0.000037  -0.000024   0.000017
               7          8          9         10         11         12
     1  C   -0.005741   0.002180  -0.000091  -0.005741   0.002180   0.001046
     2  C    0.001691  -0.000618  -0.000083   0.005344   0.000873  -0.000494
     3  C   -0.003338   0.000459  -0.002703  -0.013218  -0.002496   0.000118
     4  N   -0.019609  -0.019097  -0.181219  -0.019609  -0.019097  -0.000026
     5  C   -0.013218  -0.002496  -0.002703  -0.003338   0.000459   0.000118
     6  C    0.005344   0.000873  -0.000083   0.001691  -0.000618  -0.000494
     7  C    0.076419  -0.021833   0.005513   0.003386  -0.000592  -0.000053
     8  C   -0.021833   0.055599   0.004664  -0.000592   0.000670   0.000019
     9  O    0.005513   0.004664   0.664732   0.005513   0.004664   0.000000
    10  C    0.003386  -0.000592   0.005513   0.076419  -0.021833  -0.000053
    11  C   -0.000592   0.000670   0.004664  -0.021833   0.055599   0.000019
    12  H   -0.000053   0.000019   0.000000  -0.000053   0.000019   0.000457
    13  H    0.000808  -0.000102   0.000019   0.000808  -0.000102  -0.000149
    14  H    0.000018  -0.000006   0.000004   0.000607  -0.000377  -0.000015
    15  H    0.000114  -0.000170  -0.000086   0.000825  -0.001926  -0.000085
    16  H    0.000825  -0.001926  -0.000086   0.000114  -0.000170  -0.000085
    17  H    0.000607  -0.000377   0.000004   0.000018  -0.000006  -0.000015
    18  H    0.003980  -0.002055   0.002434   0.000502  -0.000081  -0.000002
    19  H   -0.004993   0.002716  -0.000218  -0.000097   0.000010   0.000003
    20  H   -0.001403   0.000253  -0.000159  -0.000306   0.000030   0.000005
    21  H    0.000955  -0.007050  -0.001471   0.000041  -0.000157  -0.000002
    22  H    0.000940  -0.002486  -0.000067   0.000005  -0.000005  -0.000000
    23  H    0.000516  -0.000466  -0.001016   0.000003   0.000001  -0.000000
    24  H   -0.000097   0.000010  -0.000218  -0.004993   0.002716   0.000003
    25  H    0.000502  -0.000081   0.002434   0.003980  -0.002055  -0.000002
    26  H   -0.000306   0.000030  -0.000159  -0.001403   0.000253   0.000005
    27  H    0.000041  -0.000157  -0.001471   0.000955  -0.007050  -0.000002
    28  H    0.000003   0.000001  -0.001016   0.000516  -0.000466  -0.000000
    29  H    0.000005  -0.000005  -0.000067   0.000940  -0.002486  -0.000000
              13         14         15         16         17         18
     1  C   -0.002004  -0.000247  -0.001649  -0.001649  -0.000247  -0.000223
     2  C    0.001020   0.000579   0.000634   0.000580   0.000039   0.000082
     3  C   -0.000755  -0.000198  -0.000472  -0.000191  -0.000007  -0.000379
     4  N   -0.000224   0.000002   0.001599   0.001599   0.000002  -0.004725
     5  C   -0.000755  -0.000007  -0.000191  -0.000472  -0.000198   0.000800
     6  C    0.001020   0.000039   0.000580   0.000634   0.000579  -0.000034
     7  C    0.000808   0.000018   0.000114   0.000825   0.000607   0.003980
     8  C   -0.000102  -0.000006  -0.000170  -0.001926  -0.000377  -0.002055
     9  O    0.000019   0.000004  -0.000086  -0.000086   0.000004   0.002434
    10  C    0.000808   0.000607   0.000825   0.000114   0.000018   0.000502
    11  C   -0.000102  -0.000377  -0.001926  -0.000170  -0.000006  -0.000081
    12  H   -0.000149  -0.000015  -0.000085  -0.000085  -0.000015  -0.000002
    13  H    0.000691   0.000034   0.000073   0.000073   0.000034   0.000046
    14  H    0.000034  -0.001251   0.000250   0.000012   0.000001   0.000000
    15  H    0.000073   0.000250   0.000317   0.000209   0.000012   0.000005
    16  H    0.000073   0.000012   0.000209   0.000317   0.000250   0.000037
    17  H    0.000034   0.000001   0.000012   0.000250  -0.001251   0.000031
    18  H    0.000046   0.000000   0.000005   0.000037   0.000031  -0.000699
    19  H   -0.000067  -0.000000  -0.000003  -0.000071  -0.000169  -0.002071
    20  H   -0.000083  -0.000003  -0.000005  -0.000016  -0.000030  -0.000306
    21  H    0.000005   0.000000   0.000039   0.000327   0.000042   0.000130
    22  H    0.000002  -0.000000   0.000002   0.000130  -0.000052   0.000123
    23  H    0.000000  -0.000000   0.000000   0.000015   0.000017  -0.000125
    24  H   -0.000067  -0.000169  -0.000071  -0.000003  -0.000000  -0.000029
    25  H    0.000046   0.000031   0.000037   0.000005   0.000000   0.000238
    26  H   -0.000083  -0.000030  -0.000016  -0.000005  -0.000003  -0.000071
    27  H    0.000005   0.000042   0.000327   0.000039   0.000000   0.000007
    28  H    0.000000   0.000017   0.000015   0.000000  -0.000000   0.000003
    29  H    0.000002  -0.000052   0.000130   0.000002  -0.000000   0.000001
              19         20         21         22         23         24
     1  C    0.000321   0.000341  -0.000188  -0.000031  -0.000005   0.000321
     2  C   -0.000061  -0.000110   0.000081   0.000017   0.000009  -0.000626
     3  C    0.000125   0.000195   0.000003  -0.000024  -0.000069   0.002339
     4  N    0.000589   0.000885   0.003139   0.000037   0.000250   0.000589
     5  C    0.002339   0.000836   0.001864   0.001941   0.000669   0.000125
     6  C   -0.000626  -0.000206  -0.000049  -0.000121  -0.000199  -0.000061
     7  C   -0.004993  -0.001403   0.000955   0.000940   0.000516  -0.000097
     8  C    0.002716   0.000253  -0.007050  -0.002486  -0.000466   0.000010
     9  O   -0.000218  -0.000159  -0.001471  -0.000067  -0.001016  -0.000218
    10  C   -0.000097  -0.000306   0.000041   0.000005   0.000003  -0.004993
    11  C    0.000010   0.000030  -0.000157  -0.000005   0.000001   0.002716
    12  H    0.000003   0.000005  -0.000002  -0.000000  -0.000000   0.000003
    13  H   -0.000067  -0.000083   0.000005   0.000002   0.000000  -0.000067
    14  H   -0.000000  -0.000003   0.000000  -0.000000  -0.000000  -0.000169
    15  H   -0.000003  -0.000005   0.000039   0.000002   0.000000  -0.000071
    16  H   -0.000071  -0.000016   0.000327   0.000130   0.000015  -0.000003
    17  H   -0.000169  -0.000030   0.000042  -0.000052   0.000017  -0.000000
    18  H   -0.002071  -0.000306   0.000130   0.000123  -0.000125  -0.000029
    19  H    0.004576   0.000472  -0.000087  -0.000217  -0.000062   0.000002
    20  H    0.000472  -0.001323  -0.000010  -0.000012  -0.000003   0.000024
    21  H   -0.000087  -0.000010   0.001728   0.000556   0.000285  -0.000001
    22  H   -0.000217  -0.000012   0.000556  -0.002075   0.000165  -0.000000
    23  H   -0.000062  -0.000003   0.000285   0.000165  -0.001122  -0.000000
    24  H    0.000002   0.000024  -0.000001  -0.000000  -0.000000   0.004576
    25  H   -0.000029  -0.000071   0.000007   0.000001   0.000003  -0.002071
    26  H    0.000024   0.000062  -0.000001  -0.000001  -0.000000   0.000472
    27  H   -0.000001  -0.000001   0.000048   0.000001   0.000002  -0.000087
    28  H   -0.000000  -0.000000   0.000002   0.000000   0.000002  -0.000062
    29  H   -0.000000  -0.000001   0.000001  -0.000000   0.000000  -0.000217
              25         26         27         28         29
     1  C   -0.000223   0.000341  -0.000188  -0.000005  -0.000031
     2  C   -0.000034  -0.000206  -0.000049  -0.000199  -0.000121
     3  C    0.000800   0.000836   0.001864   0.000669   0.001941
     4  N   -0.004725   0.000885   0.003139   0.000250   0.000037
     5  C   -0.000379   0.000195   0.000003  -0.000069  -0.000024
     6  C    0.000082  -0.000110   0.000081   0.000009   0.000017
     7  C    0.000502  -0.000306   0.000041   0.000003   0.000005
     8  C   -0.000081   0.000030  -0.000157   0.000001  -0.000005
     9  O    0.002434  -0.000159  -0.001471  -0.001016  -0.000067
    10  C    0.003980  -0.001403   0.000955   0.000516   0.000940
    11  C   -0.002055   0.000253  -0.007050  -0.000466  -0.002486
    12  H   -0.000002   0.000005  -0.000002  -0.000000  -0.000000
    13  H    0.000046  -0.000083   0.000005   0.000000   0.000002
    14  H    0.000031  -0.000030   0.000042   0.000017  -0.000052
    15  H    0.000037  -0.000016   0.000327   0.000015   0.000130
    16  H    0.000005  -0.000005   0.000039   0.000000   0.000002
    17  H    0.000000  -0.000003   0.000000  -0.000000  -0.000000
    18  H    0.000238  -0.000071   0.000007   0.000003   0.000001
    19  H   -0.000029   0.000024  -0.000001  -0.000000  -0.000000
    20  H   -0.000071   0.000062  -0.000001  -0.000000  -0.000001
    21  H    0.000007  -0.000001   0.000048   0.000002   0.000001
    22  H    0.000001  -0.000001   0.000001   0.000000  -0.000000
    23  H    0.000003  -0.000000   0.000002   0.000002   0.000000
    24  H   -0.002071   0.000472  -0.000087  -0.000062  -0.000217
    25  H   -0.000699  -0.000306   0.000130  -0.000125   0.000123
    26  H   -0.000306  -0.001323  -0.000010  -0.000003  -0.000012
    27  H    0.000130  -0.000010   0.001728   0.000285   0.000556
    28  H   -0.000125  -0.000003   0.000285  -0.001122   0.000165
    29  H    0.000123  -0.000012   0.000556   0.000165  -0.002075
 Mulliken charges and spin densities:
               1          2
     1  C   -0.173934  -0.000852
     2  C   -0.158378   0.003889
     3  C   -0.124789  -0.023389
     4  N   -0.059724   0.471701
     5  C   -0.124789  -0.023389
     6  C   -0.158378   0.003889
     7  C   -0.270519   0.030484
     8  C   -0.250341   0.007958
     9  O   -0.353092   0.497062
    10  C   -0.270519   0.030484
    11  C   -0.250341   0.007958
    12  H    0.120779   0.000319
    13  H    0.111491   0.000297
    14  H    0.119873  -0.000721
    15  H    0.105804   0.000496
    16  H    0.105804   0.000496
    17  H    0.119873  -0.000721
    18  H    0.126005  -0.002378
    19  H    0.127411   0.002406
    20  H    0.131126  -0.000944
    21  H    0.120121   0.000238
    22  H    0.123537  -0.001172
    23  H    0.127390  -0.001131
    24  H    0.127411   0.002406
    25  H    0.126004  -0.002378
    26  H    0.131126  -0.000944
    27  H    0.120121   0.000238
    28  H    0.127390  -0.001131
    29  H    0.123537  -0.001172
 Sum of Mulliken charges =  -0.00000   1.00000
 Mulliken charges and spin densities with hydrogens summed into heavy atoms:
               1          2
     1  C    0.058336  -0.000235
     2  C    0.067299   0.003664
     3  C   -0.124789  -0.023389
     4  N   -0.059724   0.471701
     5  C   -0.124789  -0.023389
     6  C    0.067299   0.003664
     7  C    0.114022   0.029569
     8  C    0.120708   0.005893
     9  O   -0.353092   0.497062
    10  C    0.114022   0.029569
    11  C    0.120708   0.005893
 APT charges:
               1
     1  C   -0.834297
     2  C   -0.746899
     3  C   -0.527606
     4  N    0.090865
     5  C   -0.527609
     6  C   -0.746900
     7  C   -1.007793
     8  C   -1.055509
     9  O   -0.272029
    10  C   -1.007792
    11  C   -1.055506
    12  H    0.617827
    13  H    0.307579
    14  H    0.533547
    15  H    0.352794
    16  H    0.352793
    17  H    0.533552
    18  H    0.366101
    19  H    0.571699
    20  H    0.266329
    21  H    0.311311
    22  H    0.552916
    23  H    0.428137
    24  H    0.571695
    25  H    0.366102
    26  H    0.266332
    27  H    0.311313
    28  H    0.428136
    29  H    0.552911
 Sum of APT charges =  -0.00000
 APT charges with hydrogens summed into heavy atoms:
               1
     1  C    0.091109
     2  C    0.139442
     3  C   -0.527606
     4  N    0.090865
     5  C   -0.527609
     6  C    0.139445
     7  C    0.196337
     8  C    0.236856
     9  O   -0.272029
    10  C    0.196336
    11  C    0.236854
 Electronic spatial extent (au):  <R**2>=           1678.5471
 Charge=             -0.0000 electrons
 Dipole moment (field-independent basis, Debye):
    X=              0.0001    Y=              4.0430    Z=              0.3087  Tot=              4.0548
 Quadrupole moment (field-independent basis, Debye-Ang):
   XX=            -65.0947   YY=            -76.2882   ZZ=            -68.7111
   XY=             -0.0001   XZ=              0.0000   YZ=             -0.7330
 Traceless Quadrupole moment (field-independent basis, Debye-Ang):
   XX=              4.9366   YY=             -6.2569   ZZ=              1.3202
   XY=             -0.0001   XZ=              0.0000   YZ=             -0.7330
 Octapole moment (field-independent basis, Debye-Ang**2):
  XXX=             -0.0034  YYY=             12.3550  ZZZ=             -2.9286  XYY=             -0.0011
  XXY=             -0.1342  XXZ=              1.5736  XZZ=             -0.0011  YZZ=             -1.7168
  YYZ=              1.2713  XYZ=              0.0000
 Hexadecapole moment (field-independent basis, Debye-Ang**3):
 XXXX=          -1105.7222 YYYY=           -713.3606 ZZZZ=           -427.7885 XXXY=              0.0038
 XXXZ=             -0.0048 YYYX=              0.0039 YYYZ=             -8.2840 ZZZX=             -0.0060
 ZZZY=              1.4242 XXYY=           -301.8860 XXZZ=           -266.9978 YYZZ=           -184.7402
 XXYZ=             -0.0670 YYXZ=             -0.0020 ZZXY=              0.0015
 N-N= 7.163604257844D+02 E-N=-2.553657352379D+03  KE= 4.781654801986D+02
  Exact polarizability:   0.000   0.000   0.000   0.000   0.000   0.000
 Approx polarizability: 107.864   0.000 114.709   0.000   0.024 103.549
                          Isotropic Fermi Contact Couplings
        Atom                 a.u.       MegaHertz       Gauss      10(-4) cm-1
     1  C(13)             -0.00086      -0.96297      -0.34361      -0.32121
     2  C(13)              0.00314       3.52742       1.25867       1.17662
     3  C(13)             -0.01574     -17.69224      -6.31303      -5.90150
     4  N(14)              0.20035      64.73560      23.09927      21.59347
     5  C(13)             -0.01574     -17.69225      -6.31303      -5.90150
     6  C(13)              0.00314       3.52744       1.25868       1.17663
     7  C(13)              0.02322      26.10906       9.31636       8.70905
     8  C(13)              0.00950      10.67821       3.81025       3.56187
     9  O(17)              0.19657    -119.16068     -42.51949     -39.74773
    10  C(13)              0.02322      26.10906       9.31636       8.70904
    11  C(13)              0.00950      10.67822       3.81025       3.56187
    12  H(1)               0.00016       0.70423       0.25129       0.23491
    13  H(1)               0.00005       0.21178       0.07557       0.07064
    14  H(1)              -0.00027      -1.20462      -0.42984      -0.40182
    15  H(1)              -0.00009      -0.42385      -0.15124      -0.14138
    16  H(1)              -0.00009      -0.42385      -0.15124      -0.14138
    17  H(1)              -0.00027      -1.20462      -0.42984      -0.40182
    18  H(1)              -0.00064      -2.84901      -1.01660      -0.95033
    19  H(1)               0.00086       3.85997       1.37733       1.28755
    20  H(1)              -0.00038      -1.68155      -0.60002      -0.56090
    21  H(1)              -0.00022      -0.97016      -0.34618      -0.32361
    22  H(1)              -0.00041      -1.81980      -0.64935      -0.60702
    23  H(1)              -0.00021      -0.91897      -0.32791      -0.30653
    24  H(1)               0.00086       3.85997       1.37733       1.28755
    25  H(1)              -0.00064      -2.84901      -1.01660      -0.95033
    26  H(1)              -0.00038      -1.68153      -0.60001      -0.56090
    27  H(1)              -0.00022      -0.97017      -0.34618      -0.32361
    28  H(1)              -0.00021      -0.91897      -0.32791      -0.30654
    29  H(1)              -0.00041      -1.81980      -0.64935      -0.60702
 --------------------------------------------------------
       Center         ----  Spin Dipole Couplings  ----
                      3XX-RR        3YY-RR        3ZZ-RR
 --------------------------------------------------------
     1   Atom       -0.004216      0.007703     -0.003488
     2   Atom       -0.003008      0.009124     -0.006116
     3   Atom        0.010756     -0.001813     -0.008943
     4   Atom       -0.627743     -0.615782      1.243526
     5   Atom        0.010756     -0.001814     -0.008942
     6   Atom       -0.003007      0.009124     -0.006116
     7   Atom       -0.008945     -0.018505      0.027451
     8   Atom        0.016289     -0.006924     -0.009365
     9   Atom       -1.011655     -1.071082      2.082738
    10   Atom       -0.008944     -0.018505      0.027449
    11   Atom        0.016289     -0.006924     -0.009365
    12   Atom       -0.001765      0.003426     -0.001660
    13   Atom       -0.002821      0.004740     -0.001919
    14   Atom        0.000004      0.002431     -0.002436
    15   Atom       -0.002082      0.003897     -0.001816
    16   Atom       -0.002081      0.003897     -0.001816
    17   Atom        0.000005      0.002431     -0.002436
    18   Atom        0.000477     -0.003498      0.003021
    19   Atom        0.004346     -0.002921     -0.001426
    20   Atom       -0.002860     -0.001690      0.004549
    21   Atom        0.004773     -0.005867      0.001094
    22   Atom        0.005388     -0.002403     -0.002984
    23   Atom        0.011624     -0.004954     -0.006670
    24   Atom        0.004346     -0.002920     -0.001426
    25   Atom        0.000478     -0.003498      0.003020
    26   Atom       -0.002860     -0.001690      0.004549
    27   Atom        0.004772     -0.005867      0.001094
    28   Atom        0.011624     -0.004955     -0.006669
    29   Atom        0.005387     -0.002403     -0.002984
 --------------------------------------------------------
                        XY            XZ            YZ
 --------------------------------------------------------
     1   Atom        0.000000     -0.000000      0.000651
     2   Atom       -0.006452      0.000496      0.000132
     3   Atom       -0.013510     -0.008302      0.003684
     4   Atom        0.000001     -0.000031     -0.037224
     5   Atom        0.013509      0.008303      0.003684
     6   Atom        0.006452     -0.000496      0.000132
     7   Atom       -0.000786      0.025158     -0.007180
     8   Atom       -0.004274     -0.009719      0.002689
     9   Atom       -0.000003     -0.000048      0.095739
    10   Atom        0.000786     -0.025160     -0.007179
    11   Atom        0.004273      0.009720      0.002689
    12   Atom        0.000000     -0.000000     -0.000207
    13   Atom        0.000000      0.000000      0.002874
    14   Atom       -0.003752     -0.000015     -0.000064
    15   Atom       -0.004619      0.002233     -0.004621
    16   Atom        0.004620     -0.002233     -0.004621
    17   Atom        0.003752      0.000015     -0.000064
    18   Atom        0.001927      0.010203      0.000244
    19   Atom        0.003845      0.003165      0.000878
    20   Atom        0.001473      0.002557      0.006419
    21   Atom        0.001286     -0.008781     -0.001008
    22   Atom        0.002336     -0.001574     -0.000227
    23   Atom       -0.002703     -0.002368      0.000017
    24   Atom       -0.003845     -0.003165      0.000878
    25   Atom       -0.001927     -0.010203      0.000244
    26   Atom       -0.001473     -0.002557      0.006419
    27   Atom       -0.001286      0.008781     -0.001008
    28   Atom        0.002703      0.002368      0.000017
    29   Atom       -0.002336      0.001574     -0.000227
 --------------------------------------------------------


 ---------------------------------------------------------------------------------
              Anisotropic Spin Dipole Couplings in Principal Axis System
 ---------------------------------------------------------------------------------

       Atom             a.u.   MegaHertz   Gauss  10(-4) cm-1        Axes

              Baa    -0.0042    -0.566    -0.202    -0.189  1.0000 -0.0000  0.0000
     1 C(13)  Bbb    -0.0035    -0.473    -0.169    -0.158 -0.0000 -0.0579  0.9983
              Bcc     0.0077     1.039     0.371     0.346  0.0000  0.9983  0.0579
 
              Baa    -0.0065    -0.871    -0.311    -0.290 -0.5444 -0.2317  0.8062
     2 C(13)  Bbb    -0.0054    -0.728    -0.260    -0.243  0.7389  0.3223  0.5917
              Bcc     0.0119     1.599     0.570     0.533 -0.3970  0.9178 -0.0042
 
              Baa    -0.0124    -1.665    -0.594    -0.556  0.4874  0.3421  0.8034
     3 C(13)  Bbb    -0.0096    -1.285    -0.458    -0.429  0.3113  0.7916 -0.5259
              Bcc     0.0220     2.950     1.053     0.984  0.8158 -0.5064 -0.2793
 
              Baa    -0.6277   -24.211    -8.639    -8.076  1.0000 -0.0000  0.0000
     4 N(14)  Bbb    -0.6165   -23.778    -8.485    -7.932  0.0000  0.9998  0.0200
              Bcc     1.2443    47.989    17.124    16.007 -0.0000 -0.0200  0.9998
 
              Baa    -0.0124    -1.665    -0.594    -0.556 -0.4874  0.3421  0.8034
     5 C(13)  Bbb    -0.0096    -1.285    -0.458    -0.429 -0.3113  0.7916 -0.5259
              Bcc     0.0220     2.950     1.053     0.984  0.8158  0.5064  0.2793
 
              Baa    -0.0065    -0.871    -0.311    -0.290  0.5444 -0.2318  0.8062
     6 C(13)  Bbb    -0.0054    -0.728    -0.260    -0.243  0.7390 -0.3224 -0.5916
              Bcc     0.0119     1.599     0.570     0.533  0.3970  0.9178 -0.0042
 
              Baa    -0.0234    -3.137    -1.120    -1.047  0.7314 -0.5243 -0.4361
     7 C(13)  Bbb    -0.0177    -2.374    -0.847    -0.792  0.5142  0.8441 -0.1523
              Bcc     0.0411     5.511     1.966     1.838  0.4479 -0.1128  0.8869
 
              Baa    -0.0129    -1.731    -0.618    -0.577  0.2788 -0.2211  0.9346
     8 C(13)  Bbb    -0.0075    -1.011    -0.361    -0.337  0.2359  0.9591  0.1565
              Bcc     0.0204     2.742     0.979     0.915  0.9309 -0.1768 -0.3195
 
              Baa    -1.0740    77.713    27.730    25.922  0.0000  0.9995 -0.0303
     9 O(17)  Bbb    -1.0117    73.203    26.121    24.418  1.0000 -0.0000  0.0000
              Bcc     2.0856  -150.916   -53.850   -50.340 -0.0000  0.0303  0.9995
 
              Baa    -0.0234    -3.137    -1.120    -1.047  0.7314  0.5242  0.4361
    10 C(13)  Bbb    -0.0177    -2.374    -0.847    -0.792 -0.5141  0.8441 -0.1523
              Bcc     0.0411     5.511     1.966     1.838 -0.4479 -0.1128  0.8869
 
              Baa    -0.0129    -1.731    -0.618    -0.577 -0.2788 -0.2210  0.9346
    11 C(13)  Bbb    -0.0075    -1.011    -0.361    -0.337 -0.2359  0.9591  0.1565
              Bcc     0.0204     2.742     0.979     0.915  0.9309  0.1768  0.3196
 
              Baa    -0.0018    -0.942    -0.336    -0.314  1.0000 -0.0000  0.0000
    12 H(1)   Bbb    -0.0017    -0.890    -0.318    -0.297 -0.0000  0.0407  0.9992
              Bcc     0.0034     1.832     0.654     0.611  0.0000  0.9992 -0.0407
 
              Baa    -0.0030    -1.594    -0.569    -0.532 -0.0000 -0.3485  0.9373
    13 H(1)   Bbb    -0.0028    -1.505    -0.537    -0.502  1.0000 -0.0000  0.0000
              Bcc     0.0058     3.099     1.106     1.034  0.0000  0.9373  0.3485
 
              Baa    -0.0027    -1.459    -0.520    -0.487  0.7972  0.5812  0.1633
    14 H(1)   Bbb    -0.0024    -1.295    -0.462    -0.432 -0.1354 -0.0916  0.9866
              Bcc     0.0052     2.754     0.983     0.919 -0.5883  0.8086 -0.0057
 
              Baa    -0.0047    -2.513    -0.897    -0.838  0.6903  0.5930  0.4144
    15 H(1)   Bbb    -0.0042    -2.220    -0.792    -0.741 -0.5864  0.1230  0.8007
              Bcc     0.0089     4.733     1.689     1.579 -0.4238  0.7957 -0.4327
 
              Baa    -0.0047    -2.513    -0.897    -0.838  0.6903 -0.5931 -0.4144
    16 H(1)   Bbb    -0.0042    -2.220    -0.792    -0.741  0.5863  0.1230  0.8007
              Bcc     0.0089     4.733     1.689     1.579  0.4239  0.7957 -0.4327
 
              Baa    -0.0027    -1.459    -0.520    -0.487  0.7972 -0.5812 -0.1633
    17 H(1)   Bbb    -0.0024    -1.295    -0.462    -0.432  0.1353 -0.0916  0.9866
              Bcc     0.0052     2.754     0.983     0.919  0.5883  0.8086 -0.0056
 
              Baa    -0.0088    -4.720    -1.684    -1.575  0.7390 -0.2374 -0.6305
    18 H(1)   Bbb    -0.0033    -1.772    -0.632    -0.591  0.1176  0.9669 -0.2264
              Bcc     0.0122     6.492     2.316     2.165  0.6634  0.0932  0.7425
 
              Baa    -0.0047    -2.490    -0.888    -0.830 -0.4419  0.8758  0.1943
    19 H(1)   Bbb    -0.0026    -1.368    -0.488    -0.456 -0.2392 -0.3238  0.9154
              Bcc     0.0072     3.857     1.376     1.287  0.8646  0.3580  0.3525
 
              Baa    -0.0057    -3.048    -1.088    -1.017  0.0480  0.8414 -0.5383
    20 H(1)   Bbb    -0.0036    -1.905    -0.680    -0.636  0.9706 -0.1667 -0.1739
              Bcc     0.0093     4.953     1.767     1.652  0.2360  0.5141  0.8246
 
              Baa    -0.0061    -3.232    -1.153    -1.078  0.5614 -0.5586  0.6106
    21 H(1)   Bbb    -0.0060    -3.200    -1.142    -1.067  0.2952  0.8245  0.4828
              Bcc     0.0121     6.431     2.295     2.145  0.7731  0.0908 -0.6277
 
              Baa    -0.0034    -1.800    -0.642    -0.601  0.2753 -0.4660  0.8408
    22 H(1)   Bbb    -0.0029    -1.562    -0.557    -0.521 -0.1402  0.8458  0.5147
              Bcc     0.0063     3.363     1.200     1.122  0.9511  0.2596 -0.1675
 
              Baa    -0.0070    -3.753    -1.339    -1.252  0.1504  0.1878  0.9706
    23 H(1)   Bbb    -0.0053    -2.833    -1.011    -0.945  0.1259  0.9702 -0.2072
              Bcc     0.0123     6.585     2.350     2.197  0.9806 -0.1534 -0.1223
 
              Baa    -0.0047    -2.490    -0.888    -0.830  0.4419  0.8758  0.1943
    24 H(1)   Bbb    -0.0026    -1.368    -0.488    -0.456  0.2391 -0.3238  0.9154
              Bcc     0.0072     3.857     1.376     1.287  0.8646 -0.3581 -0.3525
 
              Baa    -0.0088    -4.720    -1.684    -1.575  0.7390  0.2374  0.6305
    25 H(1)   Bbb    -0.0033    -1.772    -0.632    -0.591 -0.1175  0.9669 -0.2264
              Bcc     0.0122     6.492     2.316     2.165 -0.6634  0.0932  0.7424
 
              Baa    -0.0057    -3.048    -1.088    -1.017 -0.0480  0.8414 -0.5383
    26 H(1)   Bbb    -0.0036    -1.905    -0.680    -0.636  0.9706  0.1666  0.1739
              Bcc     0.0093     4.953     1.767     1.652 -0.2360  0.5141  0.8246
 
              Baa    -0.0061    -3.232    -1.153    -1.078 -0.5614 -0.5586  0.6106
    27 H(1)   Bbb    -0.0060    -3.200    -1.142    -1.067 -0.2952  0.8245  0.4828
              Bcc     0.0121     6.431     2.295     2.145  0.7731 -0.0908  0.6278
 
              Baa    -0.0070    -3.753    -1.339    -1.252 -0.1504  0.1878  0.9706
    28 H(1)   Bbb    -0.0053    -2.833    -1.011    -0.945 -0.1259  0.9702 -0.2072
              Bcc     0.0123     6.585     2.350     2.197  0.9806  0.1533  0.1223
 
              Baa    -0.0034    -1.800    -0.642    -0.601 -0.2753 -0.4660  0.8408
    29 H(1)   Bbb    -0.0029    -1.562    -0.557    -0.521  0.1402  0.8458  0.5147
              Bcc     0.0063     3.363     1.200     1.122  0.9511 -0.2596  0.1676
 

 ---------------------------------------------------------------------------------

 No NMR shielding tensors so no spin-rotation constants.
 Leave Link  601 at Wed Feb 28 21:01:55 2024, MaxMem=  2147483648 cpu:               5.8 elap:               0.2
 (Enter /software/gaussian-16RevA.03-el7-x86_64/g16/l716.exe)
 Dipole        = 2.91677133D-05 1.59064634D+00 1.21441729D-01
 Polarizability= 0.00000000D+00 0.00000000D+00 0.00000000D+00
                 0.00000000D+00 0.00000000D+00 0.00000000D+00
 -------------------------------------------------------------------
 Center     Atomic                   Forces (Hartrees/Bohr)
 Number     Number              X              Y              Z
 -------------------------------------------------------------------
      1        6          -0.000000000    0.000001265    0.000000025
      2        6          -0.000001072    0.000000226   -0.000001590
      3        6           0.000000010    0.000000624    0.000000916
      4        7           0.000000000   -0.000001162    0.000000415
      5        6          -0.000000017    0.000000623    0.000000911
      6        6           0.000001079    0.000000225   -0.000001596
      7        6           0.000000304    0.000000965    0.000001361
      8        6           0.000000284   -0.000000832   -0.000000462
      9        8           0.000000014   -0.000001172   -0.000001661
     10        6          -0.000000291    0.000000960    0.000001353
     11        6          -0.000000297   -0.000000833   -0.000000459
     12        1           0.000000001   -0.000001297   -0.000001024
     13        1           0.000000002    0.000000329   -0.000002217
     14        1           0.000000836   -0.000000671   -0.000001392
     15        1           0.000000022   -0.000000918    0.000000365
     16        1          -0.000000023   -0.000000917    0.000000363
     17        1          -0.000000837   -0.000000671   -0.000001394
     18        1           0.000000034    0.000002271    0.000000337
     19        1          -0.000001131    0.000000516   -0.000000292
     20        1           0.000000717    0.000000356   -0.000000950
     21        1           0.000000727   -0.000000910    0.000002278
     22        1          -0.000001043   -0.000001223    0.000000534
     23        1           0.000000197    0.000000617    0.000001144
     24        1           0.000001129    0.000000517   -0.000000303
     25        1          -0.000000042    0.000002274    0.000000342
     26        1          -0.000000721    0.000000358   -0.000000950
     27        1          -0.000000723   -0.000000912    0.000002274
     28        1          -0.000000201    0.000000620    0.000001142
     29        1           0.000001043   -0.000001228    0.000000531
 -------------------------------------------------------------------
 Cartesian Forces:  Max     0.000002278 RMS     0.000000959
 Leave Link  716 at Wed Feb 28 21:01:55 2024, MaxMem=  2147483648 cpu:               1.4 elap:               0.1
 (Enter /software/gaussian-16RevA.03-el7-x86_64/g16/l9999.exe)
 1\1\GINC-MIDWAY2-0621\FOpt\UwB97XD\def2SVPP\C9H18N1O1(2)\ALESSANDRI\28
 -Feb-2024\0\\#P wB97XD/Def2SVPP opt=(MaxCycles=500, RecalcFC=50) freq 
 scrf=(pcm,solvent=n,n-DiMethylFormamide) nosymm int(grid=ultrafine) sc
 f=(xqc,tight)\\Cavity TEMPO DMF\\0,2\C,0.0000568961,2.1186937574,-0.00
 08700343\C,-1.2398411645,1.384898308,-0.4939868571\C,-1.3188711437,-0.
 0752508597,-0.021100416\N,0.0000058952,-0.7478419047,-0.1983127721\C,1
 .3189027195,-0.075300495,-0.0210584532\C,1.239942585,1.3848513747,-0.4
 93948133\C,1.7344670881,-0.16475296,1.4571155785\C,2.3393711742,-0.827
 9196858,-0.8809656906\O,-0.0000195908,-2.0117512047,-0.1061828416\C,-1
 .7344858632,-0.1646888752,1.4570603598\C,-2.3393403072,-0.8278307868,-
 0.8810410819\H,0.0000824598,3.1517510604,-0.3869673304\H,0.0000411324,
 2.1991517242,1.1002315028\H,-2.1615270533,1.8980888481,-0.1701539259\H
 ,-1.2388526848,1.3990200255,-1.5993272158\H,1.2389889529,1.3989724925,
 -1.5992885213\H,2.1616378189,1.8980071969,-0.1700867972\H,1.6587147874
 ,-1.2090104291,1.8021171995\H,2.7799633701,0.1679847238,1.5723241736\H
 ,1.1058861048,0.4633101214,2.1082649073\H,2.0050278348,-0.8697532626,-
 1.93161713\H,3.3068539148,-0.29921528,-0.8445311767\H,2.4854616494,-1.
 8565086273,-0.5191470206\H,-2.7799730264,0.1680886704,1.57223654\H,-1.
 658784363,-1.2089496636,1.8020631131\H,-1.1059010981,0.4633492441,2.10
 82301287\H,-2.0049650196,-0.86967546,-1.9316819047\H,-2.4854805738,-1.
 8564146988,-0.5192285081\H,-3.3068044951,-0.2990903543,-0.8446366925\\
 Version=ES64L-G16RevA.03\HF=-483.2059707\S2=0.753926\S2-1=0.\S2A=0.750
 011\RMSD=3.753e-09\RMSF=9.587e-07\Dipole=0.0000292,1.5906463,0.1214417
 \Polar=0.,0.,0.,0.,0.,0.\Quadrupole=3.6702685,-4.6518189,0.9815504,-0.
 0000987,0.0000372,-0.5449796\PG=C01 [X(C9H18N1O1)]\\@


 REALITY IS FOR PEOPLE WHO CAN'T FACE SCIENCE FICTION.
 Leave Link 9999 at Wed Feb 28 21:01:55 2024, MaxMem=  2147483648 cpu:               1.2 elap:               0.1
 Job cpu time:       0 days  1 hours 34 minutes 41.5 seconds.
 Elapsed time:       0 days  0 hours  3 minutes 27.2 seconds.
 File lengths (MBytes):  RWF=    404 Int=      0 D2E=      0 Chk=     16 Scr=      8
 Normal termination of Gaussian 16 at Wed Feb 28 21:01:55 2024.
 (Enter /software/gaussian-16RevA.03-el7-x86_64/g16/l1.exe)
 Link1:  Proceeding to internal job step number  2.
 ---------------------------------------------------------------------
 #P Geom=AllCheck Guess=TCheck SCRF=Check GenChk UwB97XD/def2SVPP Freq
 ---------------------------------------------------------------------
 1/6=500,10=4,29=7,30=1,38=1,40=1,71=50/1,3;
 2/12=2,15=1,40=1/2;
 3/5=43,7=202,11=2,14=-4,25=1,30=1,70=2,71=2,74=-58,75=-5,116=2,140=1/1,2,3;
 4/5=101/1;
 5/5=2,8=3,13=1,32=2,38=6,98=1/2,8;
 8/6=4,10=90,11=11/1;
 11/6=1,8=1,9=11,15=111,16=1,31=1/1,2,10;
 10/6=1,31=1/2;
 6/7=2,8=2,9=2,10=2,28=1/1;
 7/8=1,10=1,25=1,30=1/1,2,3,16;
 1/6=500,10=4,30=1,71=50/3;
 99//99;
 Leave Link    1 at Wed Feb 28 21:01:55 2024, MaxMem=  2147483648 cpu:               0.6 elap:               0.0
 (Enter /software/gaussian-16RevA.03-el7-x86_64/g16/l101.exe)
 Structure from the checkpoint file:  "TEMPO-cavity-in-DMF-wB97XD.chk"
 ----------------
 Cavity TEMPO DMF
 ----------------
 Charge =  0 Multiplicity = 2
 Redundant internal coordinates found in file.  (old form).
 C,0,0.0000568961,2.1186937574,-0.0008700343
 C,0,-1.2398411645,1.384898308,-0.4939868571
 C,0,-1.3188711437,-0.0752508597,-0.021100416
 N,0,0.0000058952,-0.7478419047,-0.1983127721
 C,0,1.3189027195,-0.075300495,-0.0210584532
 C,0,1.239942585,1.3848513747,-0.493948133
 C,0,1.7344670881,-0.16475296,1.4571155785
 C,0,2.3393711742,-0.8279196858,-0.8809656906
 O,0,-0.0000195908,-2.0117512047,-0.1061828416
 C,0,-1.7344858632,-0.1646888752,1.4570603598
 C,0,-2.3393403072,-0.8278307868,-0.8810410819
 H,0,0.0000824598,3.1517510604,-0.3869673304
 H,0,0.0000411324,2.1991517242,1.1002315028
 H,0,-2.1615270533,1.8980888481,-0.1701539259
 H,0,-1.2388526848,1.3990200255,-1.5993272158
 H,0,1.2389889529,1.3989724925,-1.5992885213
 H,0,2.1616378189,1.8980071969,-0.1700867972
 H,0,1.6587147874,-1.2090104291,1.8021171995
 H,0,2.7799633701,0.1679847238,1.5723241736
 H,0,1.1058861048,0.4633101214,2.1082649073
 H,0,2.0050278348,-0.8697532626,-1.93161713
 H,0,3.3068539148,-0.29921528,-0.8445311767
 H,0,2.4854616494,-1.8565086273,-0.5191470206
 H,0,-2.7799730264,0.1680886704,1.57223654
 H,0,-1.658784363,-1.2089496636,1.8020631131
 H,0,-1.1059010981,0.4633492441,2.1082301287
 H,0,-2.0049650196,-0.86967546,-1.9316819047
 H,0,-2.4854805738,-1.8564146988,-0.5192285081
 H,0,-3.3068044951,-0.2990903543,-0.8446366925
 Recover connectivity data from disk.
 ITRead=  0  0  0  0  0  0  0  0  0  0  0  0  0  0  0  0  0  0  0  0
 ITRead=  0  0  0  0  0  0  0  0  0
 MicOpt= -1 -1 -1 -1 -1 -1 -1 -1 -1 -1 -1 -1 -1 -1 -1 -1 -1 -1 -1 -1
 MicOpt= -1 -1 -1 -1 -1 -1 -1 -1 -1
 NAtoms=     29 NQM=       29 NQMF=       0 NMMI=      0 NMMIF=      0
                NMic=       0 NMicF=      0.
                    Isotopes and Nuclear Properties:
 (Nuclear quadrupole moments (NQMom) in fm**2, nuclear magnetic moments (NMagM)
  in nuclear magnetons)

  Atom         1           2           3           4           5           6           7           8           9          10
 IAtWgt=          12          12          12          14          12          12          12          12          16          12
 AtmWgt=  12.0000000  12.0000000  12.0000000  14.0030740  12.0000000  12.0000000  12.0000000  12.0000000  15.9949146  12.0000000
 NucSpn=           0           0           0           2           0           0           0           0           0           0
 AtZEff=   3.6000000   3.6000000   3.6000000   4.5500000   3.6000000   3.6000000   3.6000000   3.6000000   5.6000000   3.6000000
 NQMom=    0.0000000   0.0000000   0.0000000   2.0440000   0.0000000   0.0000000   0.0000000   0.0000000   0.0000000   0.0000000
 NMagM=    0.0000000   0.0000000   0.0000000   0.4037610   0.0000000   0.0000000   0.0000000   0.0000000   0.0000000   0.0000000
 AtZNuc=   6.0000000   6.0000000   6.0000000   7.0000000   6.0000000   6.0000000   6.0000000   6.0000000   8.0000000   6.0000000

  Atom        11          12          13          14          15          16          17          18          19          20
 IAtWgt=          12           1           1           1           1           1           1           1           1           1
 AtmWgt=  12.0000000   1.0078250   1.0078250   1.0078250   1.0078250   1.0078250   1.0078250   1.0078250   1.0078250   1.0078250
 NucSpn=           0           1           1           1           1           1           1           1           1           1
 AtZEff=   3.6000000   1.0000000   1.0000000   1.0000000   1.0000000   1.0000000   1.0000000   1.0000000   1.0000000   1.0000000
 NQMom=    0.0000000   0.0000000   0.0000000   0.0000000   0.0000000   0.0000000   0.0000000   0.0000000   0.0000000   0.0000000
 NMagM=    0.0000000   2.7928460   2.7928460   2.7928460   2.7928460   2.7928460   2.7928460   2.7928460   2.7928460   2.7928460
 AtZNuc=   6.0000000   1.0000000   1.0000000   1.0000000   1.0000000   1.0000000   1.0000000   1.0000000   1.0000000   1.0000000

  Atom        21          22          23          24          25          26          27          28          29
 IAtWgt=           1           1           1           1           1           1           1           1           1
 AtmWgt=   1.0078250   1.0078250   1.0078250   1.0078250   1.0078250   1.0078250   1.0078250   1.0078250   1.0078250
 NucSpn=           1           1           1           1           1           1           1           1           1
 AtZEff=   1.0000000   1.0000000   1.0000000   1.0000000   1.0000000   1.0000000   1.0000000   1.0000000   1.0000000
 NQMom=    0.0000000   0.0000000   0.0000000   0.0000000   0.0000000   0.0000000   0.0000000   0.0000000   0.0000000
 NMagM=    2.7928460   2.7928460   2.7928460   2.7928460   2.7928460   2.7928460   2.7928460   2.7928460   2.7928460
 AtZNuc=   1.0000000   1.0000000   1.0000000   1.0000000   1.0000000   1.0000000   1.0000000   1.0000000   1.0000000
 Leave Link  101 at Wed Feb 28 21:01:55 2024, MaxMem=  2147483648 cpu:               8.3 elap:               0.3
 (Enter /software/gaussian-16RevA.03-el7-x86_64/g16/l103.exe)

 GradGradGradGradGradGradGradGradGradGradGradGradGradGradGradGradGradGrad
 Berny optimization.
 Initialization pass.
                           ----------------------------
                           !    Initial Parameters    !
                           ! (Angstroms and Degrees)  !
 --------------------------                            --------------------------
 ! Name  Definition              Value          Derivative Info.                !
 --------------------------------------------------------------------------------
 ! R1    R(1,2)                  1.5228         calculate D2E/DX2 analytically  !
 ! R2    R(1,6)                  1.5228         calculate D2E/DX2 analytically  !
 ! R3    R(1,12)                 1.1029         calculate D2E/DX2 analytically  !
 ! R4    R(1,13)                 1.104          calculate D2E/DX2 analytically  !
 ! R5    R(2,3)                  1.5368         calculate D2E/DX2 analytically  !
 ! R6    R(2,14)                 1.1035         calculate D2E/DX2 analytically  !
 ! R7    R(2,15)                 1.1054         calculate D2E/DX2 analytically  !
 ! R8    R(3,4)                  1.491          calculate D2E/DX2 analytically  !
 ! R9    R(3,10)                 1.5381         calculate D2E/DX2 analytically  !
 ! R10   R(3,11)                 1.5321         calculate D2E/DX2 analytically  !
 ! R11   R(4,5)                  1.491          calculate D2E/DX2 analytically  !
 ! R12   R(4,9)                  1.2673         calculate D2E/DX2 analytically  !
 ! R13   R(5,6)                  1.5368         calculate D2E/DX2 analytically  !
 ! R14   R(5,7)                  1.5381         calculate D2E/DX2 analytically  !
 ! R15   R(5,8)                  1.5321         calculate D2E/DX2 analytically  !
 ! R16   R(6,16)                 1.1054         calculate D2E/DX2 analytically  !
 ! R17   R(6,17)                 1.1035         calculate D2E/DX2 analytically  !
 ! R18   R(7,18)                 1.1024         calculate D2E/DX2 analytically  !
 ! R19   R(7,19)                 1.1032         calculate D2E/DX2 analytically  !
 ! R20   R(7,20)                 1.1016         calculate D2E/DX2 analytically  !
 ! R21   R(8,21)                 1.1034         calculate D2E/DX2 analytically  !
 ! R22   R(8,22)                 1.1031         calculate D2E/DX2 analytically  !
 ! R23   R(8,23)                 1.1001         calculate D2E/DX2 analytically  !
 ! R24   R(10,24)                1.1032         calculate D2E/DX2 analytically  !
 ! R25   R(10,25)                1.1024         calculate D2E/DX2 analytically  !
 ! R26   R(10,26)                1.1016         calculate D2E/DX2 analytically  !
 ! R27   R(11,27)                1.1034         calculate D2E/DX2 analytically  !
 ! R28   R(11,28)                1.1001         calculate D2E/DX2 analytically  !
 ! R29   R(11,29)                1.1031         calculate D2E/DX2 analytically  !
 ! A1    A(2,1,6)              109.0187         calculate D2E/DX2 analytically  !
 ! A2    A(2,1,12)             109.7566         calculate D2E/DX2 analytically  !
 ! A3    A(2,1,13)             110.9813         calculate D2E/DX2 analytically  !
 ! A4    A(6,1,12)             109.7566         calculate D2E/DX2 analytically  !
 ! A5    A(6,1,13)             110.9813         calculate D2E/DX2 analytically  !
 ! A6    A(12,1,13)            106.3136         calculate D2E/DX2 analytically  !
 ! A7    A(1,2,3)              113.5813         calculate D2E/DX2 analytically  !
 ! A8    A(1,2,14)             111.1577         calculate D2E/DX2 analytically  !
 ! A9    A(1,2,15)             108.4761         calculate D2E/DX2 analytically  !
 ! A10   A(3,2,14)             107.9747         calculate D2E/DX2 analytically  !
 ! A11   A(3,2,15)             108.6543         calculate D2E/DX2 analytically  !
 ! A12   A(14,2,15)            106.7525         calculate D2E/DX2 analytically  !
 ! A13   A(2,3,4)              110.2745         calculate D2E/DX2 analytically  !
 ! A14   A(2,3,10)             111.3986         calculate D2E/DX2 analytically  !
 ! A15   A(2,3,11)             109.1623         calculate D2E/DX2 analytically  !
 ! A16   A(4,3,10)             109.0871         calculate D2E/DX2 analytically  !
 ! A17   A(4,3,11)             107.5099         calculate D2E/DX2 analytically  !
 ! A18   A(10,3,11)            109.3222         calculate D2E/DX2 analytically  !
 ! A19   A(3,4,5)              124.3894         calculate D2E/DX2 analytically  !
 ! A20   A(3,4,9)              116.1827         calculate D2E/DX2 analytically  !
 ! A21   A(5,4,9)              116.1827         calculate D2E/DX2 analytically  !
 ! A22   A(4,5,6)              110.2745         calculate D2E/DX2 analytically  !
 ! A23   A(4,5,7)              109.0871         calculate D2E/DX2 analytically  !
 ! A24   A(4,5,8)              107.5099         calculate D2E/DX2 analytically  !
 ! A25   A(6,5,7)              111.3986         calculate D2E/DX2 analytically  !
 ! A26   A(6,5,8)              109.1623         calculate D2E/DX2 analytically  !
 ! A27   A(7,5,8)              109.3221         calculate D2E/DX2 analytically  !
 ! A28   A(1,6,5)              113.5813         calculate D2E/DX2 analytically  !
 ! A29   A(1,6,16)             108.4761         calculate D2E/DX2 analytically  !
 ! A30   A(1,6,17)             111.1577         calculate D2E/DX2 analytically  !
 ! A31   A(5,6,16)             108.6543         calculate D2E/DX2 analytically  !
 ! A32   A(5,6,17)             107.9747         calculate D2E/DX2 analytically  !
 ! A33   A(16,6,17)            106.7525         calculate D2E/DX2 analytically  !
 ! A34   A(5,7,18)             109.7123         calculate D2E/DX2 analytically  !
 ! A35   A(5,7,19)             109.8083         calculate D2E/DX2 analytically  !
 ! A36   A(5,7,20)             112.3793         calculate D2E/DX2 analytically  !
 ! A37   A(18,7,19)            108.551          calculate D2E/DX2 analytically  !
 ! A38   A(18,7,20)            108.4134         calculate D2E/DX2 analytically  !
 ! A39   A(19,7,20)            107.8825         calculate D2E/DX2 analytically  !
 ! A40   A(5,8,21)             110.5638         calculate D2E/DX2 analytically  !
 ! A41   A(5,8,22)             109.2804         calculate D2E/DX2 analytically  !
 ! A42   A(5,8,23)             111.2943         calculate D2E/DX2 analytically  !
 ! A43   A(21,8,22)            108.3841         calculate D2E/DX2 analytically  !
 ! A44   A(21,8,23)            108.5403         calculate D2E/DX2 analytically  !
 ! A45   A(22,8,23)            108.7107         calculate D2E/DX2 analytically  !
 ! A46   A(3,10,24)            109.8083         calculate D2E/DX2 analytically  !
 ! A47   A(3,10,25)            109.7123         calculate D2E/DX2 analytically  !
 ! A48   A(3,10,26)            112.3793         calculate D2E/DX2 analytically  !
 ! A49   A(24,10,25)           108.551          calculate D2E/DX2 analytically  !
 ! A50   A(24,10,26)           107.8825         calculate D2E/DX2 analytically  !
 ! A51   A(25,10,26)           108.4134         calculate D2E/DX2 analytically  !
 ! A52   A(3,11,27)            110.5638         calculate D2E/DX2 analytically  !
 ! A53   A(3,11,28)            111.2943         calculate D2E/DX2 analytically  !
 ! A54   A(3,11,29)            109.2804         calculate D2E/DX2 analytically  !
 ! A55   A(27,11,28)           108.5403         calculate D2E/DX2 analytically  !
 ! A56   A(27,11,29)           108.3841         calculate D2E/DX2 analytically  !
 ! A57   A(28,11,29)           108.7107         calculate D2E/DX2 analytically  !
 ! D1    D(6,1,2,3)             58.965          calculate D2E/DX2 analytically  !
 ! D2    D(6,1,2,14)          -179.0302         calculate D2E/DX2 analytically  !
 ! D3    D(6,1,2,15)           -61.9533         calculate D2E/DX2 analytically  !
 ! D4    D(12,1,2,3)           179.2107         calculate D2E/DX2 analytically  !
 ! D5    D(12,1,2,14)          -58.7846         calculate D2E/DX2 analytically  !
 ! D6    D(12,1,2,15)           58.2923         calculate D2E/DX2 analytically  !
 ! D7    D(13,1,2,3)           -63.5702         calculate D2E/DX2 analytically  !
 ! D8    D(13,1,2,14)           58.4345         calculate D2E/DX2 analytically  !
 ! D9    D(13,1,2,15)          175.5115         calculate D2E/DX2 analytically  !
 ! D10   D(2,1,6,5)            -58.9651         calculate D2E/DX2 analytically  !
 ! D11   D(2,1,6,16)            61.9533         calculate D2E/DX2 analytically  !
 ! D12   D(2,1,6,17)           179.0302         calculate D2E/DX2 analytically  !
 ! D13   D(12,1,6,5)          -179.2107         calculate D2E/DX2 analytically  !
 ! D14   D(12,1,6,16)          -58.2924         calculate D2E/DX2 analytically  !
 ! D15   D(12,1,6,17)           58.7846         calculate D2E/DX2 analytically  !
 ! D16   D(13,1,6,5)            63.5701         calculate D2E/DX2 analytically  !
 ! D17   D(13,1,6,16)         -175.5115         calculate D2E/DX2 analytically  !
 ! D18   D(13,1,6,17)          -58.4346         calculate D2E/DX2 analytically  !
 ! D19   D(1,2,3,4)            -45.4632         calculate D2E/DX2 analytically  !
 ! D20   D(1,2,3,10)            75.8135         calculate D2E/DX2 analytically  !
 ! D21   D(1,2,3,11)          -163.3629         calculate D2E/DX2 analytically  !
 ! D22   D(14,2,3,4)          -169.2183         calculate D2E/DX2 analytically  !
 ! D23   D(14,2,3,10)          -47.9416         calculate D2E/DX2 analytically  !
 ! D24   D(14,2,3,11)           72.882          calculate D2E/DX2 analytically  !
 ! D25   D(15,2,3,4)            75.355          calculate D2E/DX2 analytically  !
 ! D26   D(15,2,3,10)         -163.3683         calculate D2E/DX2 analytically  !
 ! D27   D(15,2,3,11)          -42.5447         calculate D2E/DX2 analytically  !
 ! D28   D(2,3,4,5)             35.1197         calculate D2E/DX2 analytically  !
 ! D29   D(2,3,4,9)           -166.0752         calculate D2E/DX2 analytically  !
 ! D30   D(10,3,4,5)           -87.5234         calculate D2E/DX2 analytically  !
 ! D31   D(10,3,4,9)            71.2817         calculate D2E/DX2 analytically  !
 ! D32   D(11,3,4,5)           154.032          calculate D2E/DX2 analytically  !
 ! D33   D(11,3,4,9)           -47.1629         calculate D2E/DX2 analytically  !
 ! D34   D(2,3,10,24)           67.9133         calculate D2E/DX2 analytically  !
 ! D35   D(2,3,10,25)         -172.8604         calculate D2E/DX2 analytically  !
 ! D36   D(2,3,10,26)          -52.1706         calculate D2E/DX2 analytically  !
 ! D37   D(4,3,10,24)         -170.1202         calculate D2E/DX2 analytically  !
 ! D38   D(4,3,10,25)          -50.8939         calculate D2E/DX2 analytically  !
 ! D39   D(4,3,10,26)           69.7959         calculate D2E/DX2 analytically  !
 ! D40   D(11,3,10,24)         -52.8167         calculate D2E/DX2 analytically  !
 ! D41   D(11,3,10,25)          66.4096         calculate D2E/DX2 analytically  !
 ! D42   D(11,3,10,26)        -172.9006         calculate D2E/DX2 analytically  !
 ! D43   D(2,3,11,27)           63.9894         calculate D2E/DX2 analytically  !
 ! D44   D(2,3,11,28)         -175.2989         calculate D2E/DX2 analytically  !
 ! D45   D(2,3,11,29)          -55.2262         calculate D2E/DX2 analytically  !
 ! D46   D(4,3,11,27)          -55.6342         calculate D2E/DX2 analytically  !
 ! D47   D(4,3,11,28)           65.0775         calculate D2E/DX2 analytically  !
 ! D48   D(4,3,11,29)         -174.8498         calculate D2E/DX2 analytically  !
 ! D49   D(10,3,11,27)        -173.9271         calculate D2E/DX2 analytically  !
 ! D50   D(10,3,11,28)         -53.2154         calculate D2E/DX2 analytically  !
 ! D51   D(10,3,11,29)          66.8573         calculate D2E/DX2 analytically  !
 ! D52   D(3,4,5,6)            -35.1198         calculate D2E/DX2 analytically  !
 ! D53   D(3,4,5,7)             87.5234         calculate D2E/DX2 analytically  !
 ! D54   D(3,4,5,8)           -154.0321         calculate D2E/DX2 analytically  !
 ! D55   D(9,4,5,6)            166.0752         calculate D2E/DX2 analytically  !
 ! D56   D(9,4,5,7)            -71.2817         calculate D2E/DX2 analytically  !
 ! D57   D(9,4,5,8)             47.1628         calculate D2E/DX2 analytically  !
 ! D58   D(4,5,6,1)             45.4633         calculate D2E/DX2 analytically  !
 ! D59   D(4,5,6,16)           -75.3549         calculate D2E/DX2 analytically  !
 ! D60   D(4,5,6,17)           169.2184         calculate D2E/DX2 analytically  !
 ! D61   D(7,5,6,1)            -75.8134         calculate D2E/DX2 analytically  !
 ! D62   D(7,5,6,16)           163.3683         calculate D2E/DX2 analytically  !
 ! D63   D(7,5,6,17)            47.9417         calculate D2E/DX2 analytically  !
 ! D64   D(8,5,6,1)            163.3629         calculate D2E/DX2 analytically  !
 ! D65   D(8,5,6,16)            42.5447         calculate D2E/DX2 analytically  !
 ! D66   D(8,5,6,17)           -72.882          calculate D2E/DX2 analytically  !
 ! D67   D(4,5,7,18)            50.8939         calculate D2E/DX2 analytically  !
 ! D68   D(4,5,7,19)           170.1202         calculate D2E/DX2 analytically  !
 ! D69   D(4,5,7,20)           -69.7959         calculate D2E/DX2 analytically  !
 ! D70   D(6,5,7,18)           172.8604         calculate D2E/DX2 analytically  !
 ! D71   D(6,5,7,19)           -67.9133         calculate D2E/DX2 analytically  !
 ! D72   D(6,5,7,20)            52.1706         calculate D2E/DX2 analytically  !
 ! D73   D(8,5,7,18)           -66.4097         calculate D2E/DX2 analytically  !
 ! D74   D(8,5,7,19)            52.8166         calculate D2E/DX2 analytically  !
 ! D75   D(8,5,7,20)           172.9005         calculate D2E/DX2 analytically  !
 ! D76   D(4,5,8,21)            55.6342         calculate D2E/DX2 analytically  !
 ! D77   D(4,5,8,22)           174.8497         calculate D2E/DX2 analytically  !
 ! D78   D(4,5,8,23)           -65.0776         calculate D2E/DX2 analytically  !
 ! D79   D(6,5,8,21)           -63.9894         calculate D2E/DX2 analytically  !
 ! D80   D(6,5,8,22)            55.2262         calculate D2E/DX2 analytically  !
 ! D81   D(6,5,8,23)           175.2988         calculate D2E/DX2 analytically  !
 ! D82   D(7,5,8,21)           173.9271         calculate D2E/DX2 analytically  !
 ! D83   D(7,5,8,22)           -66.8573         calculate D2E/DX2 analytically  !
 ! D84   D(7,5,8,23)            53.2154         calculate D2E/DX2 analytically  !
 --------------------------------------------------------------------------------
 Trust Radius=3.00D-01 FncErr=1.00D-07 GrdErr=1.00D-07 EigMax=2.50D+02 EigMin=1.00D-04
 Number of steps in this run=      2 maximum allowed number of steps=      2.
 Step   0 in ReCalcFC=50 IGetFC= 4 compute analytic Hessian.
 GradGradGradGradGradGradGradGradGradGradGradGradGradGradGradGradGradGrad

 Leave Link  103 at Wed Feb 28 21:01:55 2024, MaxMem=  2147483648 cpu:               0.4 elap:               0.0
 (Enter /software/gaussian-16RevA.03-el7-x86_64/g16/l202.exe)
                          Input orientation:                          
 ---------------------------------------------------------------------
 Center     Atomic      Atomic             Coordinates (Angstroms)
 Number     Number       Type             X           Y           Z
 ---------------------------------------------------------------------
      1          6           0        0.000057    2.118694   -0.000870
      2          6           0       -1.239841    1.384898   -0.493987
      3          6           0       -1.318871   -0.075251   -0.021100
      4          7           0        0.000006   -0.747842   -0.198313
      5          6           0        1.318903   -0.075300   -0.021058
      6          6           0        1.239943    1.384851   -0.493948
      7          6           0        1.734467   -0.164753    1.457116
      8          6           0        2.339371   -0.827920   -0.880966
      9          8           0       -0.000020   -2.011751   -0.106183
     10          6           0       -1.734486   -0.164689    1.457060
     11          6           0       -2.339340   -0.827831   -0.881041
     12          1           0        0.000082    3.151751   -0.386967
     13          1           0        0.000041    2.199152    1.100232
     14          1           0       -2.161527    1.898089   -0.170154
     15          1           0       -1.238853    1.399020   -1.599327
     16          1           0        1.238989    1.398972   -1.599289
     17          1           0        2.161638    1.898007   -0.170087
     18          1           0        1.658715   -1.209010    1.802117
     19          1           0        2.779963    0.167985    1.572324
     20          1           0        1.105886    0.463310    2.108265
     21          1           0        2.005028   -0.869753   -1.931617
     22          1           0        3.306854   -0.299215   -0.844531
     23          1           0        2.485462   -1.856509   -0.519147
     24          1           0       -2.779973    0.168089    1.572237
     25          1           0       -1.658784   -1.208950    1.802063
     26          1           0       -1.105901    0.463349    2.108230
     27          1           0       -2.004965   -0.869675   -1.931682
     28          1           0       -2.485481   -1.856415   -0.519229
     29          1           0       -3.306804   -0.299090   -0.844637
 ---------------------------------------------------------------------
                    Distance matrix (angstroms):
                    1          2          3          4          5
     1  C    0.000000
     2  C    1.522816   0.000000
     3  C    2.559956   1.536848   0.000000
     4  N    2.873327   2.484597   1.491046   0.000000
     5  C    2.559956   2.983792   2.637774   1.491047   0.000000
     6  C    1.522816   2.479784   2.983791   2.484597   1.536848
     7  C    3.216835   3.880042   3.393524   2.467548   1.538081
     8  C    3.863870   4.225763   3.832573   2.438249   1.532068
     9  O    4.131787   3.636589   2.344492   1.267263   2.344492
    10  C    3.216836   2.540173   1.538081   2.467547   3.393524
    11  C    3.863869   2.500976   1.532068   2.438249   3.832573
    12  H    1.102850   2.161165   3.505287   3.904154   3.505287
    13  H    1.104037   2.177579   2.858290   3.220402   2.858290
    14  H    2.179396   1.103511   2.150896   3.416719   4.003734
    15  H    2.146600   1.105431   2.161175   2.847214   3.347636
    16  H    2.146600   2.714128   3.347635   2.847213   2.161175
    17  H    2.179396   3.455177   4.003734   3.416719   2.150896
    18  H    4.132254   4.516867   3.670906   2.639263   2.173647
    19  H    3.742738   4.680742   4.404385   3.420827   2.175489
    20  H    2.900276   3.622634   3.271650   2.830223   2.206693
    21  H    4.083933   4.204689   3.915305   2.653172   2.179944
    22  H    4.182458   4.861230   4.703778   3.399133   2.163376
    23  H    4.716787   4.938141   4.230116   2.740359   2.186699
    24  H    3.742738   2.849897   2.175490   3.420827   4.404385
    25  H    4.132255   3.489327   2.173647   2.639263   3.670906
    26  H    2.900278   2.763824   2.206693   2.830222   3.271649
    27  H    4.083932   2.781274   2.179944   2.653172   3.915305
    28  H    4.716787   3.472516   2.186699   2.740358   4.230115
    29  H    4.182458   2.689072   2.163376   3.399133   4.703778
                    6          7          8          9         10
     6  C    0.000000
     7  C    2.540173   0.000000
     8  C    2.500976   2.504461   0.000000
     9  O    3.636589   2.977205   2.733952   0.000000
    10  C    3.880043   3.468953   4.743685   2.977204   0.000000
    11  C    4.225763   4.743686   4.678711   2.733952   2.504461
    12  H    2.161165   4.172281   4.642638   5.171131   4.172282
    13  H    2.177579   2.953582   4.308221   4.380313   2.953583
    14  H    3.455177   4.699159   5.309846   4.468004   2.661812
    15  H    2.714128   4.541790   4.275394   3.923971   3.468767
    16  H    1.105431   3.468767   2.585706   3.923970   4.541790
    17  H    1.103511   2.661812   2.822696   4.468004   4.699160
    18  H    3.489327   1.102378   2.794183   2.652810   3.566999
    19  H    2.849896   1.103200   2.684135   3.911130   4.528157
    20  H    2.763824   1.101623   3.481991   3.500391   2.980967
    21  H    2.781275   3.471849   1.103360   2.942207   5.095509
    22  H    2.689073   2.790709   1.103122   3.796492   5.543512
    23  H    3.472516   2.707701   1.100114   2.524333   4.957379
    24  H    4.680743   4.528157   5.763499   3.911130   1.103200
    25  H    4.516867   3.567000   4.830018   2.652809   1.102378
    26  H    3.622634   2.980965   4.740524   3.500389   1.101623
    27  H    4.204687   5.095509   4.469788   2.942208   3.471850
    28  H    4.938140   4.957380   4.946499   2.524332   2.707701
    29  H    4.861229   5.543512   5.671003   3.796491   2.790709
                   11         12         13         14         15
    11  C    0.000000
    12  H    4.642637   0.000000
    13  H    4.308221   1.766127   0.000000
    14  H    2.822697   2.508233   2.525251   0.000000
    15  H    2.585705   2.465125   3.076148   1.772832   0.000000
    16  H    4.275392   2.465126   3.076148   3.722237   2.477842
    17  H    5.309845   2.508233   2.525252   4.323165   3.722238
    18  H    4.830019   5.153581   3.854791   5.304542   5.173736
    19  H    5.763499   4.524315   3.475123   5.517954   5.265520
    20  H    4.740525   3.831018   2.291761   4.233884   4.485487
    21  H    4.469788   4.751657   4.757127   5.303195   3.972469
    22  H    5.671003   4.801382   4.578095   5.931789   4.910923
    23  H    4.946500   5.592606   5.024747   5.984422   5.063178
    24  H    2.684136   4.524315   3.475124   2.532055   3.734844
    25  H    2.794183   5.153582   3.854792   3.714307   4.306658
    26  H    3.481991   3.831020   2.291763   2.892034   3.826113
    27  H    1.103360   4.751655   4.757126   3.284511   2.417513
    28  H    1.100114   5.592606   5.024748   3.784587   3.649459
    29  H    1.103122   4.801382   4.578095   2.567914   2.780209
                   16         17         18         19         20
    16  H    0.000000
    17  H    1.772832   0.000000
    18  H    4.306658   3.714307   0.000000
    19  H    3.734844   2.532055   1.790564   0.000000
    20  H    3.826112   2.892033   1.787737   1.782410   0.000000
    21  H    2.417514   3.284511   3.765076   3.735643   4.348122
    22  H    2.780210   2.567914   3.247897   2.517356   3.760945
    23  H    3.649460   3.784586   2.547750   2.925672   3.766707
    24  H    5.265520   5.517955   4.653085   5.559936   3.933749
    25  H    5.173736   5.304544   3.317499   4.653086   3.245553
    26  H    4.485487   4.233885   3.245550   3.933749   2.211787
    27  H    3.972466   5.303194   5.242037   6.020825   5.270239
    28  H    5.063176   5.984421   4.793968   6.016451   5.018243
    29  H    4.910922   5.931789   5.699969   6.565714   5.364021
                   21         22         23         24         25
    21  H    0.000000
    22  H    1.789419   0.000000
    23  H    1.788735   1.790453   0.000000
    24  H    6.020825   6.565714   6.016451   0.000000
    25  H    5.242036   5.699969   4.793967   1.790564   0.000000
    26  H    5.270238   5.364020   5.018240   1.782410   1.787736
    27  H    4.009993   5.451857   4.809680   3.735644   3.765076
    28  H    4.809679   6.006815   4.970942   2.925674   2.547750
    29  H    5.451857   6.613658   6.006816   2.517357   3.247897
                   26         27         28         29
    26  H    0.000000
    27  H    4.348121   0.000000
    28  H    3.766707   1.788735   0.000000
    29  H    3.760946   1.789419   1.790453   0.000000
 Symmetry turned off by external request.
 Stoichiometry    C9H18NO(2)
 Framework group  C1[X(C9H18NO)]
 Deg. of freedom    81
 Full point group                 C1      NOp   1
 Rotational constants (GHZ):           1.4843674           1.0670575           0.8585899
 Leave Link  202 at Wed Feb 28 21:01:56 2024, MaxMem=  2147483648 cpu:               3.4 elap:               0.2
 (Enter /software/gaussian-16RevA.03-el7-x86_64/g16/l301.exe)
 Standard basis: def2SVPP (5D, 7F)
 Ernie: Thresh=  0.10000D-02 Tol=  0.10000D-05 Strict=F.
   190 basis functions,   347 primitive gaussians,   201 cartesian basis functions
    44 alpha electrons       43 beta electrons
       nuclear repulsion energy       716.3861461939 Hartrees.
 IExCor= 4639 DFT=T Ex+Corr=wB97XD ExCW=0 ScaHFX=  1.000000
 ScaDFX=  1.000000  1.000000  1.000000  1.000000 ScalE2=  1.000000  1.000000
 IRadAn=      5 IRanWt=     -1 IRanGd=            0 ICorTp=0 IEmpDi=121
 HFx  wShort=  0.000000 wLong=  0.200000 cFull=  0.222036 cShort=  0.000000 cLong=  0.777964
 DFx  wShort=  0.000000 wLong=  0.200000 cFull=  0.000000 cShort=  0.000000 cLong=  1.000000
 NAtoms=   29 NActive=   29 NUniq=   29 SFac= 1.00D+00 NAtFMM=   60 NAOKFM=F Big=F
 Integral buffers will be    131072 words long.
 Raffenetti 2 integral format.
 Two-electron integral symmetry is turned off.
 R6Disp:  Grimme-D2 Dispersion energy=       -0.0257204095 Hartrees.
 Nuclear repulsion after empirical dispersion term =      716.3604257844 Hartrees.
 Force inversion solution in PCM.
 ------------------------------------------------------------------------------
 Polarizable Continuum Model (PCM)
 =================================
 Model                : PCM.
 Atomic radii         : UFF (Universal Force Field).
 Polarization charges : Total charges.
 Charge compensation  : None.
 Solution method      : Matrix inversion.
 Cavity type          : Scaled VdW (van der Waals Surface) (Alpha=1.100).
 Cavity algorithm     : GePol (No added spheres)
                        Default sphere list used, NSphG=   29.
                        Lebedev-Laikov grids with approx.  5.0 points / Ang**2.
                        Smoothing algorithm: York/Karplus (Gamma=1.0000).
                        Polarization charges: spherical gaussians, with
                                              point-specific exponents (IZeta= 3).
                        Self-potential: point-specific (ISelfS= 7).
                        Self-field    : sphere-specific E.n sum rule (ISelfD= 2).
 1st derivatives      : Analytical E(r).r(x)/FMM algorithm (CHGder, D1EAlg=3).
                        Cavity 1st derivative terms included.
 2nd derivatives      : Analytical E(r).r(xy)/FMM algorithm (CHGder, D2EAlg=3).
                        Cavity 2nd derivative terms included.
 Solvent              : n,n-DiMethylFormamide, Eps=  37.219000 Eps(inf)=   2.046330
 ------------------------------------------------------------------------------
 GePol: Number of generator spheres                  =      29
 GePol: Total number of spheres                      =      29
 GePol: Number of exposed spheres                    =      29 (100.00%)
 GePol: Number of points                             =    1753
 GePol: Average weight of points                     =       0.13
 GePol: Minimum weight of points                     =   0.14D-09
 GePol: Maximum weight of points                     =    0.20577
 GePol: Number of points with low weight             =     100
 GePol: Fraction of low-weight points (<1% of avg)   =       5.70%
 GePol: Cavity surface area                          =    236.639 Ang**2
 GePol: Cavity volume                                =    256.598 Ang**3
 Leave Link  301 at Wed Feb 28 21:01:56 2024, MaxMem=  2147483648 cpu:               2.8 elap:               0.1
 (Enter /software/gaussian-16RevA.03-el7-x86_64/g16/l302.exe)
 NPDir=0 NMtPBC=     1 NCelOv=     1 NCel=       1 NClECP=     1 NCelD=      1
         NCelK=      1 NCelE2=     1 NClLst=     1 CellRange=     0.0.
 One-electron integrals computed using PRISM.
   1 Symmetry operations used in ECPInt.
 ECPInt:  NShTT=    5253 NPrTT=   21107 LenC2=    5228 LenP2D=   16397.
 LDataN:  DoStor=T MaxTD1= 4 Len=   56
 NBasis=   190 RedAO= T EigKep=  1.01D-03  NBF=   190
 NBsUse=   190 1.00D-06 EigRej= -1.00D+00 NBFU=   190
 Precomputing XC quadrature grid using
 IXCGrd= 4 IRadAn=           5 IRanWt=          -1 IRanGd=           0 AccXCQ= 0.00D+00.
 Generated NRdTot=       0 NPtTot=           0 NUsed=           0 NTot=          32
 NSgBfM=   201   201   201   201   201 MxSgAt=    29 MxSgA2=    29.
 Leave Link  302 at Wed Feb 28 21:01:56 2024, MaxMem=  2147483648 cpu:               7.3 elap:               0.3
 (Enter /software/gaussian-16RevA.03-el7-x86_64/g16/l303.exe)
 DipDrv:  MaxL=1.
 Leave Link  303 at Wed Feb 28 21:01:56 2024, MaxMem=  2147483648 cpu:               1.7 elap:               0.1
 (Enter /software/gaussian-16RevA.03-el7-x86_64/g16/l401.exe)
 Initial guess from the checkpoint file:  "TEMPO-cavity-in-DMF-wB97XD.chk"
 B after Tr=     0.000000    0.000000    0.000000
         Rot=    1.000000    0.000000    0.000000    0.000000 Ang=   0.00 deg.
 Guess basis will be translated and rotated to current coordinates.
 JPrj=2 DoOrth=T DoCkMO=T.
 Initial guess <Sx>= 0.0000 <Sy>= 0.0000 <Sz>= 0.5000 <S**2>= 0.7539 S= 0.5020
 Leave Link  401 at Wed Feb 28 21:01:56 2024, MaxMem=  2147483648 cpu:               3.9 elap:               0.2
 (Enter /software/gaussian-16RevA.03-el7-x86_64/g16/l502.exe)
 Two-electron integral symmetry not used.
 UHF open shell SCF:
 Using DIIS extrapolation, IDIIS=  1040.
 NGot=  2147483648 LenX=  2147395142 LenY=  2147354300
 Requested convergence on RMS density matrix=1.00D-08 within  32 cycles.
 Requested convergence on MAX density matrix=1.00D-06.
 Requested convergence on             energy=1.00D-06.
 No special actions if energy rises.
 Fock matrices will be formed incrementally for  20 cycles.

 Cycle   1  Pass 1  IDiag  1:
 FoFJK:  IHMeth= 1 ICntrl=       0 DoSepK=T KAlg= 0 I1Cent=           0 FoldK=F
 IRaf=         1 NMat=       1 IRICut=       1 DoRegI=T DoRafI=F ISym2E= 0 IDoP0=0 IntGTp=1.
 FoFCou: FMM=F IPFlag=           0 FMFlag=      100000 FMFlg1=           0
         NFxFlg=           0 DoJE=T BraDBF=F KetDBF=F FulRan=T
         wScrn=  0.000000 ICntrl=       500 IOpCl=  0 I1Cent=           0 NGrid=           0
         NMat0=    1 NMatS0=      1 NMatT0=    0 NMatD0=    1 NMtDS0=    0 NMtDT0=    0
 Symmetry not used in FoFCou.
 Inv3:  Mode=1 IEnd=     9219027.
 Iteration    1 A*A^-1 deviation from unit magnitude is 2.66D-15 for    101.
 Iteration    1 A*A^-1 deviation from orthogonality  is 2.22D-15 for   1480    375.
 Iteration    1 A^-1*A deviation from unit magnitude is 2.89D-15 for    376.
 Iteration    1 A^-1*A deviation from orthogonality  is 2.07D-15 for   1621     69.
 E= -483.205970678338    
 DIIS: error= 1.36D-08 at cycle   1 NSaved=   1.
 NSaved= 1 IEnMin= 1 EnMin= -483.205970678338     IErMin= 1 ErrMin= 1.36D-08
 ErrMax= 1.36D-08  0.00D+00 EMaxC= 1.00D-01 BMatC= 6.97D-14 BMatP= 6.97D-14
 IDIUse=1 WtCom= 1.00D+00 WtEn= 0.00D+00
 Coeff-Com:  0.100D+01
 Coeff:      0.100D+01
 Gap=     0.401 Goal=   None    Shift=    0.000
 Gap=     0.353 Goal=   None    Shift=    0.000
 RMSDP=1.72D-09 MaxDP=5.26D-08              OVMax= 9.31D-08

 Error on total polarization charges =  0.00923
 SCF Done:  E(UwB97XD) =  -483.205970678     A.U. after    1 cycles
            NFock=  1  Conv=0.17D-08     -V/T= 2.0105
 <Sx>= 0.0000 <Sy>= 0.0000 <Sz>= 0.5000 <S**2>= 0.7539 S= 0.5020
 <L.S>=  0.00000000000    
 KE= 4.781654797009D+02 PE=-2.553657351881D+03 EE= 8.759254757172D+02
 Annihilation of the first spin contaminant:
 S**2 before annihilation     0.7539,   after     0.7500
 Leave Link  502 at Wed Feb 28 21:01:59 2024, MaxMem=  2147483648 cpu:              76.5 elap:               3.0
 (Enter /software/gaussian-16RevA.03-el7-x86_64/g16/l508.exe)
 QCSCF skips out because SCF is already converged.
 Leave Link  508 at Wed Feb 28 21:01:59 2024, MaxMem=  2147483648 cpu:               0.2 elap:               0.0
 (Enter /software/gaussian-16RevA.03-el7-x86_64/g16/l801.exe)
 DoSCS=F DFT=T ScalE2(SS,OS)=  1.000000  1.000000
 Range of M.O.s used for correlation:     1   190
 NBasis=   190 NAE=    44 NBE=    43 NFC=     0 NFV=     0
 NROrb=    190 NOA=    44 NOB=    43 NVA=   146 NVB=   147
 Leave Link  801 at Wed Feb 28 21:01:59 2024, MaxMem=  2147483648 cpu:               1.7 elap:               0.1
 (Enter /software/gaussian-16RevA.03-el7-x86_64/g16/l1101.exe)
 Using compressed storage, NAtomX=    29.
 Will process     30 centers per pass.
   1 Symmetry operations used in ECPInt.
 ECPInt:  NShTT=    5253 NPrTT=   21107 LenC2=    5228 LenP2D=   16397.
 LDataN:  DoStor=T MaxTD1= 5 Len=  102
 R6Disp: Adding Grimme-D2 dispersion energy 1st derivatives to the gradient.
 Leave Link 1101 at Wed Feb 28 21:02:00 2024, MaxMem=  2147483648 cpu:               9.2 elap:               0.4
 (Enter /software/gaussian-16RevA.03-el7-x86_64/g16/l1102.exe)
 Symmetrizing basis deriv contribution to polar:
 IMax=3 JMax=2 DiffMx= 0.00D+00
 Leave Link 1102 at Wed Feb 28 21:02:00 2024, MaxMem=  2147483648 cpu:               0.8 elap:               0.1
 (Enter /software/gaussian-16RevA.03-el7-x86_64/g16/l1110.exe)
 Forming Gx(P) for the SCF density, NAtomX=    29.
 Integral derivatives from FoFJK, PRISM(SPDF).
 Do as many integral derivatives as possible in FoFJK.
 G2DrvN: MDV=    2147481424.
 G2DrvN: will do    30 centers at a time, making    1 passes.
 Calling FoFCou, ICntrl=  3107 FMM=F I1Cent=   0 AccDes= 0.00D+00.
 FoFJK:  IHMeth= 1 ICntrl=    3107 DoSepK=T KAlg= 0 I1Cent=           0 FoldK=F
 IRaf=         1 NMat=       1 IRICut=       1 DoRegI=T DoRafI=F ISym2E= 0 IDoP0=0 IntGTp=1.
 FoFCou: FMM=F IPFlag=           0 FMFlag=      100000 FMFlg1=           0
         NFxFlg=           0 DoJE=F BraDBF=F KetDBF=F FulRan=T
         wScrn=  0.000000 ICntrl=      3507 IOpCl=  0 I1Cent=           0 NGrid=           0
         NMat0=    1 NMatS0=      1 NMatT0=    0 NMatD0=    1 NMtDS0=    0 NMtDT0=    0
 Symmetry not used in FoFCou.
 NEqPCM:  Using equilibrium solvation (IEInf=0, Eps=  37.2190, EpsInf=   2.0463)
 G2PCM: DoFxE=T DoFxN=T DoGrad=T DoDP/DQ/DG/TGxP=FFFF NFrqRd=   0 IEInf=0 SqF1=F DoCFld=F IF1Alg=4.
 GePol: Maximum number of non-zero 1st derivatives   =     166
 End of G2Drv F.D. properties file   721 does not exist.
 End of G2Drv F.D. properties file   722 does not exist.
 End of G2Drv F.D. properties file   788 does not exist.
 Leave Link 1110 at Wed Feb 28 21:02:29 2024, MaxMem=  2147483648 cpu:             821.0 elap:              29.4
 (Enter /software/gaussian-16RevA.03-el7-x86_64/g16/l1002.exe)
 Minotr:  UHF open shell wavefunction.
          IDoAtm=11111111111111111111111111111
 NEqPCM:  Using equilibrium solvation (IEInf=0, Eps=  37.2190, EpsInf=   2.0463)
          Direct CPHF calculation.
          Differentiating once with respect to electric field.
                with respect to dipole field.
          Differentiating once with respect to nuclear coordinates.
          Requested convergence is 1.0D-08 RMS, and 1.0D-07 maximum.
          Secondary convergence is 1.0D-12 RMS, and 1.0D-12 maximum.
          NewPWx=T KeepS1=F KeepF1=F KeepIn=T MapXYZ=F SortEE=F KeepMc=T.
         8643 words used for storage of precomputed grid.
 Keep R1 and R2 ints in memory in canonical form, NReq=687285793.
 FoFCou: FMM=F IPFlag=           0 FMFlag=           0 FMFlg1=           0
         NFxFlg=           0 DoJE=F BraDBF=F KetDBF=F FulRan=T
         wScrn=  0.000000 ICntrl=       600 IOpCl=  0 I1Cent=           0 NGrid=           0
         NMat0=    1 NMatS0=  18145 NMatT0=    0 NMatD0=    1 NMtDS0=    0 NMtDT0=    0
 Symmetry not used in FoFCou.
 Two-electron integral symmetry not used.
          MDV=    2147483648 using IRadAn=       1.
          Solving linear equations simultaneously, MaxMat=       0.
          There are    90 degrees of freedom in the 1st order CPHF.  IDoFFX=6 NUNeed=     3.
     87 vectors produced by pass  0 Test12= 1.42D-14 1.11D-09 XBig12= 7.99D+01 2.39D+00.
 AX will form    87 AO Fock derivatives at one time.
     87 vectors produced by pass  1 Test12= 1.42D-14 1.11D-09 XBig12= 6.89D+00 3.63D-01.
     87 vectors produced by pass  2 Test12= 1.42D-14 1.11D-09 XBig12= 4.55D-01 1.87D-01.
     87 vectors produced by pass  3 Test12= 1.42D-14 1.11D-09 XBig12= 4.76D-03 1.14D-02.
     87 vectors produced by pass  4 Test12= 1.42D-14 1.11D-09 XBig12= 3.57D-05 1.26D-03.
     87 vectors produced by pass  5 Test12= 1.42D-14 1.11D-09 XBig12= 3.11D-07 7.97D-05.
     86 vectors produced by pass  6 Test12= 1.42D-14 1.11D-09 XBig12= 2.95D-09 4.89D-06.
     28 vectors produced by pass  7 Test12= 1.42D-14 1.11D-09 XBig12= 1.75D-11 3.16D-07.
      4 vectors produced by pass  8 Test12= 1.42D-14 1.11D-09 XBig12= 1.42D-13 4.99D-08.
      1 vectors produced by pass  9 Test12= 1.42D-14 1.11D-09 XBig12= 1.04D-15 3.52D-09.
 InvSVY:  IOpt=1 It=  1 EMax= 8.88D-15
 Solved reduced A of dimension   641 with    90 vectors.
 FullF1:  Do perturbations      1 to       3.
 Isotropic polarizability for W=    0.000000      131.18 Bohr**3.
 End of Minotr F.D. properties file   721 does not exist.
 End of Minotr F.D. properties file   722 does not exist.
 End of Minotr F.D. properties file   788 does not exist.
 Leave Link 1002 at Wed Feb 28 21:03:13 2024, MaxMem=  2147483648 cpu:            1216.3 elap:              44.1
 (Enter /software/gaussian-16RevA.03-el7-x86_64/g16/l601.exe)
 Copying SCF densities to generalized density rwf, IOpCl= 1 IROHF=0.

 **********************************************************************

            Population analysis using the SCF density.

 **********************************************************************

 Alpha  occ. eigenvalues --  -19.25099 -14.52861 -10.34323 -10.34316 -10.29249
 Alpha  occ. eigenvalues --  -10.29247 -10.29153 -10.28431 -10.28426 -10.28125
 Alpha  occ. eigenvalues --  -10.28125  -1.19446  -0.96401  -0.91547  -0.86062
 Alpha  occ. eigenvalues --   -0.80954  -0.78587  -0.77528  -0.77051  -0.69035
 Alpha  occ. eigenvalues --   -0.69029  -0.60572  -0.57833  -0.57322  -0.56628
 Alpha  occ. eigenvalues --   -0.55114  -0.53082  -0.51345  -0.51342  -0.49357
 Alpha  occ. eigenvalues --   -0.48923  -0.47375  -0.47345  -0.45838  -0.45489
 Alpha  occ. eigenvalues --   -0.45020  -0.43800  -0.43338  -0.41675  -0.40920
 Alpha  occ. eigenvalues --   -0.40344  -0.39310  -0.34041  -0.27393
 Alpha virt. eigenvalues --    0.12730   0.15564   0.15756   0.16271   0.16778
 Alpha virt. eigenvalues --    0.19086   0.19728   0.21307   0.21568   0.22129
 Alpha virt. eigenvalues --    0.22379   0.22672   0.23482   0.24578   0.25170
 Alpha virt. eigenvalues --    0.25626   0.26188   0.27008   0.27556   0.28317
 Alpha virt. eigenvalues --    0.28517   0.29423   0.30731   0.32247   0.33705
 Alpha virt. eigenvalues --    0.34474   0.35381   0.37331   0.40025   0.47740
 Alpha virt. eigenvalues --    0.48612   0.48989   0.50426   0.52108   0.54079
 Alpha virt. eigenvalues --    0.56295   0.56854   0.61884   0.62047   0.64697
 Alpha virt. eigenvalues --    0.65393   0.67801   0.68286   0.70069   0.71637
 Alpha virt. eigenvalues --    0.72454   0.73431   0.73810   0.74428   0.74893
 Alpha virt. eigenvalues --    0.77209   0.77472   0.77615   0.77833   0.78541
 Alpha virt. eigenvalues --    0.80120   0.80382   0.80567   0.81006   0.81161
 Alpha virt. eigenvalues --    0.81250   0.81643   0.82742   0.84011   0.84399
 Alpha virt. eigenvalues --    0.84518   0.85181   0.85547   0.86426   0.86516
 Alpha virt. eigenvalues --    0.89005   0.91075   0.94828   0.98314   0.98409
 Alpha virt. eigenvalues --    1.04325   1.05011   1.07104   1.11266   1.15405
 Alpha virt. eigenvalues --    1.16925   1.19432   1.23600   1.23786   1.26296
 Alpha virt. eigenvalues --    1.28066   1.32771   1.35928   1.36155   1.46084
 Alpha virt. eigenvalues --    1.51177   1.51596   1.58917   1.61222   1.72074
 Alpha virt. eigenvalues --    1.81041   1.84225   1.84695   1.86898   1.87823
 Alpha virt. eigenvalues --    1.90692   1.91951   1.93182   1.95101   1.97018
 Alpha virt. eigenvalues --    1.99280   1.99340   2.01628   2.06232   2.06571
 Alpha virt. eigenvalues --    2.10060   2.12117   2.13858   2.16275   2.17753
 Alpha virt. eigenvalues --    2.21553   2.23053   2.24652   2.25761   2.26234
 Alpha virt. eigenvalues --    2.27811   2.27974   2.35632   2.35907   2.39458
 Alpha virt. eigenvalues --    2.39726   2.43832   2.44463   2.47277   2.51117
 Alpha virt. eigenvalues --    2.54544   2.61899   2.67446   2.71027   2.73508
 Alpha virt. eigenvalues --    2.75862   2.76059   2.80966   2.81032   2.81579
 Alpha virt. eigenvalues --    2.86279   2.96917   3.08340   3.24326   3.43563
 Alpha virt. eigenvalues --    3.83302
  Beta  occ. eigenvalues --  -19.23874 -14.51860 -10.34363 -10.34357 -10.29244
  Beta  occ. eigenvalues --  -10.29241 -10.29154 -10.28377 -10.28373 -10.28106
  Beta  occ. eigenvalues --  -10.28105  -1.16895  -0.95494  -0.91414  -0.85544
  Beta  occ. eigenvalues --   -0.79517  -0.78374  -0.77414  -0.77024  -0.68791
  Beta  occ. eigenvalues --   -0.68610  -0.59848  -0.57107  -0.57061  -0.55097
  Beta  occ. eigenvalues --   -0.53309  -0.53005  -0.51286  -0.50901  -0.48684
  Beta  occ. eigenvalues --   -0.48513  -0.47259  -0.47006  -0.45246  -0.44970
  Beta  occ. eigenvalues --   -0.44845  -0.43296  -0.41821  -0.41514  -0.40792
  Beta  occ. eigenvalues --   -0.39247  -0.38394  -0.32700
  Beta virt. eigenvalues --    0.02552   0.12778   0.15574   0.15778   0.16523
  Beta virt. eigenvalues --    0.16815   0.19162   0.19817   0.21521   0.21575
  Beta virt. eigenvalues --    0.22147   0.22524   0.22694   0.23737   0.24625
  Beta virt. eigenvalues --    0.25195   0.25808   0.26260   0.27146   0.27846
  Beta virt. eigenvalues --    0.28346   0.28542   0.29929   0.30922   0.32727
  Beta virt. eigenvalues --    0.33727   0.34667   0.35522   0.37675   0.41307
  Beta virt. eigenvalues --    0.47901   0.48624   0.49107   0.50502   0.52179
  Beta virt. eigenvalues --    0.54661   0.56749   0.56993   0.62167   0.62198
  Beta virt. eigenvalues --    0.64934   0.65662   0.67847   0.68463   0.70225
  Beta virt. eigenvalues --    0.71690   0.72467   0.73468   0.73856   0.74598
  Beta virt. eigenvalues --    0.74947   0.77238   0.77561   0.77615   0.77912
  Beta virt. eigenvalues --    0.78621   0.80198   0.80413   0.80723   0.81047
  Beta virt. eigenvalues --    0.81238   0.81286   0.81762   0.82849   0.84044
  Beta virt. eigenvalues --    0.84501   0.84568   0.85285   0.85606   0.86490
  Beta virt. eigenvalues --    0.86561   0.89055   0.91167   0.94861   0.98425
  Beta virt. eigenvalues --    0.98856   1.04959   1.05868   1.08342   1.11537
  Beta virt. eigenvalues --    1.15452   1.18646   1.19641   1.24014   1.25159
  Beta virt. eigenvalues --    1.27005   1.28332   1.33446   1.36202   1.36736
  Beta virt. eigenvalues --    1.46250   1.51697   1.51961   1.59599   1.61527
  Beta virt. eigenvalues --    1.72303   1.81088   1.84667   1.84857   1.87918
  Beta virt. eigenvalues --    1.88095   1.90956   1.92458   1.93345   1.95564
  Beta virt. eigenvalues --    1.97245   1.99312   1.99506   2.01727   2.06315
  Beta virt. eigenvalues --    2.06681   2.10213   2.12177   2.13916   2.16722
  Beta virt. eigenvalues --    2.17837   2.21980   2.23197   2.24729   2.25827
  Beta virt. eigenvalues --    2.26874   2.28098   2.28169   2.36020   2.36449
  Beta virt. eigenvalues --    2.39624   2.39963   2.44298   2.44962   2.47690
  Beta virt. eigenvalues --    2.51864   2.54611   2.62610   2.68416   2.71911
  Beta virt. eigenvalues --    2.74320   2.76689   2.78613   2.81365   2.82899
  Beta virt. eigenvalues --    2.83313   2.86329   2.98280   3.10095   3.28361
  Beta virt. eigenvalues --    3.44473   3.85134
          Condensed to atoms (all electrons):
               1          2          3          4          5          6
     1  C    4.805994   0.403896  -0.047778  -0.009152  -0.047778   0.403896
     2  C    0.403896   4.987591   0.330205  -0.041152   0.003516  -0.067850
     3  C   -0.047778   0.330205   5.106684   0.239201  -0.102580   0.003516
     4  N   -0.009152  -0.041152   0.239201   6.710946   0.239201  -0.041152
     5  C   -0.047778   0.003516  -0.102580   0.239201   5.106683   0.330205
     6  C    0.403896  -0.067850   0.003516  -0.041152   0.330205   4.987590
     7  C   -0.011039   0.001116  -0.005690  -0.059542   0.405159  -0.077176
     8  C    0.010758  -0.002241   0.009648  -0.060572   0.393425  -0.065019
     9  O   -0.000141   0.006406  -0.068823   0.215095  -0.068823   0.006406
    10  C   -0.011039  -0.077176   0.405159  -0.059542  -0.005690   0.001116
    11  C    0.010758  -0.065019   0.393425  -0.060572   0.009648  -0.002241
    12  H    0.366972  -0.015460   0.007204   0.000028   0.007204  -0.015460
    13  H    0.376673  -0.026952  -0.006101  -0.002445  -0.006101  -0.026952
    14  H   -0.015391   0.360837  -0.015588   0.004681  -0.000234   0.008099
    15  H   -0.027363   0.358738  -0.014746  -0.002269  -0.004084  -0.000368
    16  H   -0.027363  -0.000368  -0.004084  -0.002269  -0.014746   0.358738
    17  H   -0.015391   0.008099  -0.000234   0.004681  -0.015588   0.360837
    18  H   -0.000420  -0.000097   0.000297  -0.008908  -0.017039   0.009753
    19  H   -0.000038   0.000004  -0.000069   0.005406  -0.020655  -0.003570
    20  H    0.004514  -0.001179   0.000887  -0.002606  -0.015608  -0.007452
    21  H   -0.000329   0.000132  -0.000058   0.001590  -0.013145  -0.008330
    22  H    0.000328  -0.000038  -0.000011   0.005414  -0.025636  -0.003591
    23  H   -0.000344  -0.000115   0.000688  -0.008618  -0.014281   0.008679
    24  H   -0.000038  -0.003570  -0.020655   0.005406  -0.000069   0.000004
    25  H   -0.000420   0.009753  -0.017039  -0.008908   0.000297  -0.000097
    26  H    0.004514  -0.007452  -0.015608  -0.002606   0.000887  -0.001179
    27  H   -0.000329  -0.008331  -0.013145   0.001590  -0.000058   0.000132
    28  H   -0.000344   0.008679  -0.014281  -0.008618   0.000688  -0.000115
    29  H    0.000328  -0.003591  -0.025636   0.005414  -0.000011  -0.000038
               7          8          9         10         11         12
     1  C   -0.011039   0.010758  -0.000141  -0.011039   0.010758   0.366972
     2  C    0.001116  -0.002241   0.006406  -0.077176  -0.065019  -0.015460
     3  C   -0.005690   0.009648  -0.068823   0.405159   0.393425   0.007204
     4  N   -0.059542  -0.060572   0.215095  -0.059542  -0.060572   0.000028
     5  C    0.405159   0.393425  -0.068823  -0.005690   0.009648   0.007204
     6  C   -0.077176  -0.065019   0.006406   0.001116  -0.002241  -0.015460
     7  C    4.971191  -0.081817  -0.008996   0.002700  -0.000681  -0.000273
     8  C   -0.081817   4.932167   0.007126  -0.000681   0.000009  -0.000267
     9  O   -0.008996   0.007126   8.208373  -0.008996   0.007126   0.000010
    10  C    0.002700  -0.000681  -0.008996   4.971191  -0.081817  -0.000273
    11  C   -0.000681   0.000009   0.007126  -0.081817   4.932166  -0.000267
    12  H   -0.000273  -0.000267   0.000010  -0.000273  -0.000267   0.576759
    13  H    0.004374   0.000062  -0.000047   0.004374   0.000062  -0.025648
    14  H   -0.000012   0.000037  -0.000123  -0.004325  -0.004672  -0.003869
    15  H    0.000299  -0.000230  -0.000216   0.009328  -0.007658  -0.006582
    16  H    0.009328  -0.007658  -0.000216   0.000299  -0.000230  -0.006582
    17  H   -0.004325  -0.004672  -0.000123  -0.000012   0.000037  -0.003869
    18  H    0.369849  -0.008187   0.014854   0.000789  -0.000136   0.000013
    19  H    0.377319  -0.002157  -0.000000   0.000043   0.000018  -0.000006
    20  H    0.378176   0.007184  -0.000203   0.000301   0.000016  -0.000183
    21  H    0.008740   0.370264  -0.001284   0.000051  -0.000112  -0.000023
    22  H   -0.003641   0.380308   0.000744   0.000015   0.000004  -0.000012
    23  H   -0.005744   0.373108   0.015416   0.000004  -0.000042   0.000008
    24  H    0.000043   0.000018  -0.000000   0.377319  -0.002157  -0.000006
    25  H    0.000789  -0.000136   0.014854   0.369849  -0.008187   0.000013
    26  H    0.000301   0.000016  -0.000203   0.378175   0.007184  -0.000183
    27  H    0.000051  -0.000112  -0.001284   0.008740   0.370264  -0.000023
    28  H    0.000004  -0.000042   0.015416  -0.005744   0.373108   0.000008
    29  H    0.000015   0.000004   0.000744  -0.003641   0.380308  -0.000012
              13         14         15         16         17         18
     1  C    0.376673  -0.015391  -0.027363  -0.027363  -0.015391  -0.000420
     2  C   -0.026952   0.360837   0.358738  -0.000368   0.008099  -0.000097
     3  C   -0.006101  -0.015588  -0.014746  -0.004084  -0.000234   0.000297
     4  N   -0.002445   0.004681  -0.002269  -0.002269   0.004681  -0.008908
     5  C   -0.006101  -0.000234  -0.004084  -0.014746  -0.015588  -0.017039
     6  C   -0.026952   0.008099  -0.000368   0.358738   0.360837   0.009753
     7  C    0.004374  -0.000012   0.000299   0.009328  -0.004325   0.369849
     8  C    0.000062   0.000037  -0.000230  -0.007658  -0.004672  -0.008187
     9  O   -0.000047  -0.000123  -0.000216  -0.000216  -0.000123   0.014854
    10  C    0.004374  -0.004325   0.009328   0.000299  -0.000012   0.000789
    11  C    0.000062  -0.004672  -0.007658  -0.000230   0.000037  -0.000136
    12  H   -0.025648  -0.003869  -0.006582  -0.006582  -0.003869   0.000013
    13  H    0.585971  -0.005266   0.006778   0.006778  -0.005266  -0.000262
    14  H   -0.005266   0.573929  -0.024191   0.000011  -0.000302   0.000005
    15  H    0.006778  -0.024191   0.594487   0.006231   0.000011   0.000004
    16  H    0.006778   0.000011   0.006231   0.594487  -0.024191  -0.000321
    17  H   -0.005266  -0.000302   0.000011  -0.024191   0.573929   0.000043
    18  H   -0.000262   0.000005   0.000004  -0.000321   0.000043   0.546892
    19  H   -0.000041  -0.000003  -0.000006  -0.000166   0.003576  -0.018442
    20  H    0.004412   0.000039  -0.000015   0.000006  -0.000581  -0.020020
    21  H    0.000016   0.000001   0.000073   0.007230  -0.000204  -0.000059
    22  H   -0.000027   0.000000   0.000008  -0.000855   0.003970  -0.000079
    23  H    0.000009   0.000001   0.000009   0.000065  -0.000340   0.005477
    24  H   -0.000041   0.003576  -0.000166  -0.000006  -0.000003   0.000003
    25  H   -0.000262   0.000043  -0.000321   0.000004   0.000005   0.000217
    26  H    0.004412  -0.000581   0.000006  -0.000015   0.000039  -0.000203
    27  H    0.000016  -0.000204   0.007230   0.000073   0.000001   0.000003
    28  H    0.000009  -0.000340   0.000065   0.000009   0.000001  -0.000027
    29  H   -0.000027   0.003970  -0.000855   0.000008   0.000000  -0.000002
              19         20         21         22         23         24
     1  C   -0.000038   0.004514  -0.000329   0.000328  -0.000344  -0.000038
     2  C    0.000004  -0.001179   0.000132  -0.000038  -0.000115  -0.003570
     3  C   -0.000069   0.000887  -0.000058  -0.000011   0.000688  -0.020655
     4  N    0.005406  -0.002606   0.001590   0.005414  -0.008618   0.005406
     5  C   -0.020655  -0.015608  -0.013145  -0.025636  -0.014281  -0.000069
     6  C   -0.003570  -0.007452  -0.008330  -0.003591   0.008679   0.000004
     7  C    0.377319   0.378176   0.008740  -0.003641  -0.005744   0.000043
     8  C   -0.002157   0.007184   0.370264   0.380308   0.373108   0.000018
     9  O   -0.000000  -0.000203  -0.001284   0.000744   0.015416  -0.000000
    10  C    0.000043   0.000301   0.000051   0.000015   0.000004   0.377319
    11  C    0.000018   0.000016  -0.000112   0.000004  -0.000042  -0.002157
    12  H   -0.000006  -0.000183  -0.000023  -0.000012   0.000008  -0.000006
    13  H   -0.000041   0.004412   0.000016  -0.000027   0.000009  -0.000041
    14  H   -0.000003   0.000039   0.000001   0.000000   0.000001   0.003576
    15  H   -0.000006  -0.000015   0.000073   0.000008   0.000009  -0.000166
    16  H   -0.000166   0.000006   0.007230  -0.000855   0.000065  -0.000006
    17  H    0.003576  -0.000581  -0.000204   0.003970  -0.000340  -0.000003
    18  H   -0.018442  -0.020020  -0.000059  -0.000079   0.005477   0.000003
    19  H    0.548053  -0.019048  -0.000062   0.003042  -0.000664  -0.000001
    20  H   -0.019048   0.534989  -0.000309  -0.000075   0.000019   0.000054
    21  H   -0.000062  -0.000309   0.552933  -0.017900  -0.019497  -0.000001
    22  H    0.003042  -0.000075  -0.017900   0.553995  -0.019500  -0.000000
    23  H   -0.000664   0.000019  -0.019497  -0.019500   0.538323   0.000001
    24  H   -0.000001   0.000054  -0.000001  -0.000000   0.000001   0.548053
    25  H    0.000003  -0.000203   0.000003  -0.000002  -0.000027  -0.018442
    26  H    0.000054   0.005767  -0.000004   0.000000  -0.000001  -0.019048
    27  H   -0.000001  -0.000004   0.000166   0.000003  -0.000004  -0.000062
    28  H    0.000001  -0.000001  -0.000004  -0.000001  -0.000017  -0.000664
    29  H   -0.000000   0.000000   0.000003  -0.000000  -0.000001   0.003042
              25         26         27         28         29
     1  C   -0.000420   0.004514  -0.000329  -0.000344   0.000328
     2  C    0.009753  -0.007452  -0.008331   0.008679  -0.003591
     3  C   -0.017039  -0.015608  -0.013145  -0.014281  -0.025636
     4  N   -0.008908  -0.002606   0.001590  -0.008618   0.005414
     5  C    0.000297   0.000887  -0.000058   0.000688  -0.000011
     6  C   -0.000097  -0.001179   0.000132  -0.000115  -0.000038
     7  C    0.000789   0.000301   0.000051   0.000004   0.000015
     8  C   -0.000136   0.000016  -0.000112  -0.000042   0.000004
     9  O    0.014854  -0.000203  -0.001284   0.015416   0.000744
    10  C    0.369849   0.378175   0.008740  -0.005744  -0.003641
    11  C   -0.008187   0.007184   0.370264   0.373108   0.380308
    12  H    0.000013  -0.000183  -0.000023   0.000008  -0.000012
    13  H   -0.000262   0.004412   0.000016   0.000009  -0.000027
    14  H    0.000043  -0.000581  -0.000204  -0.000340   0.003970
    15  H   -0.000321   0.000006   0.007230   0.000065  -0.000855
    16  H    0.000004  -0.000015   0.000073   0.000009   0.000008
    17  H    0.000005   0.000039   0.000001   0.000001   0.000000
    18  H    0.000217  -0.000203   0.000003  -0.000027  -0.000002
    19  H    0.000003   0.000054  -0.000001   0.000001  -0.000000
    20  H   -0.000203   0.005767  -0.000004  -0.000001   0.000000
    21  H    0.000003  -0.000004   0.000166  -0.000004   0.000003
    22  H   -0.000002   0.000000   0.000003  -0.000001  -0.000000
    23  H   -0.000027  -0.000001  -0.000004  -0.000017  -0.000001
    24  H   -0.018442  -0.019048  -0.000062  -0.000664   0.003042
    25  H    0.546892  -0.020020  -0.000059   0.005477  -0.000079
    26  H   -0.020020   0.534989  -0.000309   0.000019  -0.000075
    27  H   -0.000059  -0.000309   0.552933  -0.019497  -0.017900
    28  H    0.005477   0.000019  -0.019497   0.538323  -0.019500
    29  H   -0.000079  -0.000075  -0.017900  -0.019500   0.553995
          Atomic-Atomic Spin Densities.
               1          2          3          4          5          6
     1  C    0.016394  -0.009110   0.006458  -0.000408   0.006458  -0.009110
     2  C   -0.009110   0.002406   0.002650  -0.001254  -0.003265   0.004112
     3  C    0.006458   0.002650  -0.038549   0.016824   0.006992  -0.003265
     4  N   -0.000408  -0.001254   0.016824   0.696299   0.016824  -0.001254
     5  C    0.006458  -0.003265   0.006992   0.016824  -0.038549   0.002650
     6  C   -0.009110   0.004112  -0.003265  -0.001254   0.002650   0.002406
     7  C   -0.005741   0.001691  -0.003338  -0.019609  -0.013218   0.005344
     8  C    0.002180  -0.000618   0.000459  -0.019097  -0.002496   0.000873
     9  O   -0.000091  -0.000083  -0.002703  -0.181219  -0.002703  -0.000083
    10  C   -0.005741   0.005344  -0.013218  -0.019609  -0.003338   0.001691
    11  C    0.002180   0.000873  -0.002496  -0.019097   0.000459  -0.000618
    12  H    0.001046  -0.000494   0.000118  -0.000026   0.000118  -0.000494
    13  H   -0.002004   0.001020  -0.000755  -0.000224  -0.000755   0.001020
    14  H   -0.000247   0.000579  -0.000198   0.000002  -0.000007   0.000039
    15  H   -0.001649   0.000634  -0.000472   0.001599  -0.000191   0.000580
    16  H   -0.001649   0.000580  -0.000191   0.001599  -0.000472   0.000634
    17  H   -0.000247   0.000039  -0.000007   0.000002  -0.000198   0.000579
    18  H   -0.000223   0.000082  -0.000379  -0.004725   0.000800  -0.000034
    19  H    0.000321  -0.000061   0.000125   0.000589   0.002339  -0.000626
    20  H    0.000341  -0.000110   0.000195   0.000885   0.000836  -0.000206
    21  H   -0.000188   0.000081   0.000003   0.003139   0.001864  -0.000049
    22  H   -0.000031   0.000017  -0.000024   0.000037   0.001941  -0.000121
    23  H   -0.000005   0.000009  -0.000069   0.000250   0.000669  -0.000199
    24  H    0.000321  -0.000626   0.002339   0.000589   0.000125  -0.000061
    25  H   -0.000223  -0.000034   0.000800  -0.004725  -0.000379   0.000082
    26  H    0.000341  -0.000206   0.000836   0.000885   0.000195  -0.000110
    27  H   -0.000188  -0.000049   0.001864   0.003139   0.000003   0.000081
    28  H   -0.000005  -0.000199   0.000669   0.000250  -0.000069   0.000009
    29  H   -0.000031  -0.000121   0.001941   0.000037  -0.000024   0.000017
               7          8          9         10         11         12
     1  C   -0.005741   0.002180  -0.000091  -0.005741   0.002180   0.001046
     2  C    0.001691  -0.000618  -0.000083   0.005344   0.000873  -0.000494
     3  C   -0.003338   0.000459  -0.002703  -0.013218  -0.002496   0.000118
     4  N   -0.019609  -0.019097  -0.181219  -0.019609  -0.019097  -0.000026
     5  C   -0.013218  -0.002496  -0.002703  -0.003338   0.000459   0.000118
     6  C    0.005344   0.000873  -0.000083   0.001691  -0.000618  -0.000494
     7  C    0.076419  -0.021833   0.005513   0.003386  -0.000592  -0.000053
     8  C   -0.021833   0.055599   0.004664  -0.000592   0.000670   0.000019
     9  O    0.005513   0.004664   0.664732   0.005513   0.004664   0.000000
    10  C    0.003386  -0.000592   0.005513   0.076419  -0.021833  -0.000053
    11  C   -0.000592   0.000670   0.004664  -0.021833   0.055599   0.000019
    12  H   -0.000053   0.000019   0.000000  -0.000053   0.000019   0.000457
    13  H    0.000808  -0.000102   0.000019   0.000808  -0.000102  -0.000149
    14  H    0.000018  -0.000006   0.000004   0.000607  -0.000377  -0.000015
    15  H    0.000114  -0.000170  -0.000086   0.000825  -0.001926  -0.000085
    16  H    0.000825  -0.001926  -0.000086   0.000114  -0.000170  -0.000085
    17  H    0.000607  -0.000377   0.000004   0.000018  -0.000006  -0.000015
    18  H    0.003980  -0.002055   0.002434   0.000502  -0.000081  -0.000002
    19  H   -0.004993   0.002716  -0.000218  -0.000097   0.000010   0.000003
    20  H   -0.001403   0.000253  -0.000159  -0.000306   0.000030   0.000005
    21  H    0.000955  -0.007050  -0.001471   0.000041  -0.000157  -0.000002
    22  H    0.000940  -0.002486  -0.000067   0.000005  -0.000005  -0.000000
    23  H    0.000516  -0.000466  -0.001016   0.000003   0.000001  -0.000000
    24  H   -0.000097   0.000010  -0.000218  -0.004993   0.002716   0.000003
    25  H    0.000502  -0.000081   0.002434   0.003980  -0.002055  -0.000002
    26  H   -0.000306   0.000030  -0.000159  -0.001403   0.000253   0.000005
    27  H    0.000041  -0.000157  -0.001471   0.000955  -0.007050  -0.000002
    28  H    0.000003   0.000001  -0.001016   0.000516  -0.000466  -0.000000
    29  H    0.000005  -0.000005  -0.000067   0.000940  -0.002486  -0.000000
              13         14         15         16         17         18
     1  C   -0.002004  -0.000247  -0.001649  -0.001649  -0.000247  -0.000223
     2  C    0.001020   0.000579   0.000634   0.000580   0.000039   0.000082
     3  C   -0.000755  -0.000198  -0.000472  -0.000191  -0.000007  -0.000379
     4  N   -0.000224   0.000002   0.001599   0.001599   0.000002  -0.004725
     5  C   -0.000755  -0.000007  -0.000191  -0.000472  -0.000198   0.000800
     6  C    0.001020   0.000039   0.000580   0.000634   0.000579  -0.000034
     7  C    0.000808   0.000018   0.000114   0.000825   0.000607   0.003980
     8  C   -0.000102  -0.000006  -0.000170  -0.001926  -0.000377  -0.002055
     9  O    0.000019   0.000004  -0.000086  -0.000086   0.000004   0.002434
    10  C    0.000808   0.000607   0.000825   0.000114   0.000018   0.000502
    11  C   -0.000102  -0.000377  -0.001926  -0.000170  -0.000006  -0.000081
    12  H   -0.000149  -0.000015  -0.000085  -0.000085  -0.000015  -0.000002
    13  H    0.000691   0.000034   0.000073   0.000073   0.000034   0.000046
    14  H    0.000034  -0.001251   0.000250   0.000012   0.000001   0.000000
    15  H    0.000073   0.000250   0.000317   0.000209   0.000012   0.000005
    16  H    0.000073   0.000012   0.000209   0.000317   0.000250   0.000037
    17  H    0.000034   0.000001   0.000012   0.000250  -0.001251   0.000031
    18  H    0.000046   0.000000   0.000005   0.000037   0.000031  -0.000699
    19  H   -0.000067  -0.000000  -0.000003  -0.000071  -0.000169  -0.002071
    20  H   -0.000083  -0.000003  -0.000005  -0.000016  -0.000030  -0.000306
    21  H    0.000005   0.000000   0.000039   0.000327   0.000042   0.000130
    22  H    0.000002  -0.000000   0.000002   0.000130  -0.000052   0.000123
    23  H    0.000000  -0.000000   0.000000   0.000015   0.000017  -0.000125
    24  H   -0.000067  -0.000169  -0.000071  -0.000003  -0.000000  -0.000029
    25  H    0.000046   0.000031   0.000037   0.000005   0.000000   0.000238
    26  H   -0.000083  -0.000030  -0.000016  -0.000005  -0.000003  -0.000071
    27  H    0.000005   0.000042   0.000327   0.000039   0.000000   0.000007
    28  H    0.000000   0.000017   0.000015   0.000000  -0.000000   0.000003
    29  H    0.000002  -0.000052   0.000130   0.000002  -0.000000   0.000001
              19         20         21         22         23         24
     1  C    0.000321   0.000341  -0.000188  -0.000031  -0.000005   0.000321
     2  C   -0.000061  -0.000110   0.000081   0.000017   0.000009  -0.000626
     3  C    0.000125   0.000195   0.000003  -0.000024  -0.000069   0.002339
     4  N    0.000589   0.000885   0.003139   0.000037   0.000250   0.000589
     5  C    0.002339   0.000836   0.001864   0.001941   0.000669   0.000125
     6  C   -0.000626  -0.000206  -0.000049  -0.000121  -0.000199  -0.000061
     7  C   -0.004993  -0.001403   0.000955   0.000940   0.000516  -0.000097
     8  C    0.002716   0.000253  -0.007050  -0.002486  -0.000466   0.000010
     9  O   -0.000218  -0.000159  -0.001471  -0.000067  -0.001016  -0.000218
    10  C   -0.000097  -0.000306   0.000041   0.000005   0.000003  -0.004993
    11  C    0.000010   0.000030  -0.000157  -0.000005   0.000001   0.002716
    12  H    0.000003   0.000005  -0.000002  -0.000000  -0.000000   0.000003
    13  H   -0.000067  -0.000083   0.000005   0.000002   0.000000  -0.000067
    14  H   -0.000000  -0.000003   0.000000  -0.000000  -0.000000  -0.000169
    15  H   -0.000003  -0.000005   0.000039   0.000002   0.000000  -0.000071
    16  H   -0.000071  -0.000016   0.000327   0.000130   0.000015  -0.000003
    17  H   -0.000169  -0.000030   0.000042  -0.000052   0.000017  -0.000000
    18  H   -0.002071  -0.000306   0.000130   0.000123  -0.000125  -0.000029
    19  H    0.004576   0.000472  -0.000087  -0.000217  -0.000062   0.000002
    20  H    0.000472  -0.001323  -0.000010  -0.000012  -0.000003   0.000024
    21  H   -0.000087  -0.000010   0.001728   0.000556   0.000285  -0.000001
    22  H   -0.000217  -0.000012   0.000556  -0.002075   0.000165  -0.000000
    23  H   -0.000062  -0.000003   0.000285   0.000165  -0.001122  -0.000000
    24  H    0.000002   0.000024  -0.000001  -0.000000  -0.000000   0.004576
    25  H   -0.000029  -0.000071   0.000007   0.000001   0.000003  -0.002071
    26  H    0.000024   0.000062  -0.000001  -0.000001  -0.000000   0.000472
    27  H   -0.000001  -0.000001   0.000048   0.000001   0.000002  -0.000087
    28  H   -0.000000  -0.000000   0.000002   0.000000   0.000002  -0.000062
    29  H   -0.000000  -0.000001   0.000001  -0.000000   0.000000  -0.000217
              25         26         27         28         29
     1  C   -0.000223   0.000341  -0.000188  -0.000005  -0.000031
     2  C   -0.000034  -0.000206  -0.000049  -0.000199  -0.000121
     3  C    0.000800   0.000836   0.001864   0.000669   0.001941
     4  N   -0.004725   0.000885   0.003139   0.000250   0.000037
     5  C   -0.000379   0.000195   0.000003  -0.000069  -0.000024
     6  C    0.000082  -0.000110   0.000081   0.000009   0.000017
     7  C    0.000502  -0.000306   0.000041   0.000003   0.000005
     8  C   -0.000081   0.000030  -0.000157   0.000001  -0.000005
     9  O    0.002434  -0.000159  -0.001471  -0.001016  -0.000067
    10  C    0.003980  -0.001403   0.000955   0.000516   0.000940
    11  C   -0.002055   0.000253  -0.007050  -0.000466  -0.002486
    12  H   -0.000002   0.000005  -0.000002  -0.000000  -0.000000
    13  H    0.000046  -0.000083   0.000005   0.000000   0.000002
    14  H    0.000031  -0.000030   0.000042   0.000017  -0.000052
    15  H    0.000037  -0.000016   0.000327   0.000015   0.000130
    16  H    0.000005  -0.000005   0.000039   0.000000   0.000002
    17  H    0.000000  -0.000003   0.000000  -0.000000  -0.000000
    18  H    0.000238  -0.000071   0.000007   0.000003   0.000001
    19  H   -0.000029   0.000024  -0.000001  -0.000000  -0.000000
    20  H   -0.000071   0.000062  -0.000001  -0.000000  -0.000001
    21  H    0.000007  -0.000001   0.000048   0.000002   0.000001
    22  H    0.000001  -0.000001   0.000001   0.000000  -0.000000
    23  H    0.000003  -0.000000   0.000002   0.000002   0.000000
    24  H   -0.002071   0.000472  -0.000087  -0.000062  -0.000217
    25  H   -0.000699  -0.000306   0.000130  -0.000125   0.000123
    26  H   -0.000306  -0.001323  -0.000010  -0.000003  -0.000012
    27  H    0.000130  -0.000010   0.001728   0.000285   0.000556
    28  H   -0.000125  -0.000003   0.000285  -0.001122   0.000165
    29  H    0.000123  -0.000012   0.000556   0.000165  -0.002075
 Mulliken charges and spin densities:
               1          2
     1  C   -0.173934  -0.000852
     2  C   -0.158378   0.003889
     3  C   -0.124789  -0.023389
     4  N   -0.059724   0.471701
     5  C   -0.124789  -0.023389
     6  C   -0.158378   0.003889
     7  C   -0.270519   0.030484
     8  C   -0.250341   0.007958
     9  O   -0.353092   0.497062
    10  C   -0.270519   0.030484
    11  C   -0.250341   0.007958
    12  H    0.120779   0.000319
    13  H    0.111491   0.000297
    14  H    0.119873  -0.000721
    15  H    0.105804   0.000496
    16  H    0.105804   0.000496
    17  H    0.119873  -0.000721
    18  H    0.126005  -0.002378
    19  H    0.127411   0.002406
    20  H    0.131126  -0.000944
    21  H    0.120121   0.000238
    22  H    0.123537  -0.001172
    23  H    0.127390  -0.001131
    24  H    0.127411   0.002406
    25  H    0.126004  -0.002378
    26  H    0.131126  -0.000944
    27  H    0.120121   0.000238
    28  H    0.127390  -0.001131
    29  H    0.123537  -0.001172
 Sum of Mulliken charges =  -0.00000   1.00000
 Mulliken charges and spin densities with hydrogens summed into heavy atoms:
               1          2
     1  C    0.058336  -0.000235
     2  C    0.067299   0.003664
     3  C   -0.124789  -0.023389
     4  N   -0.059724   0.471701
     5  C   -0.124789  -0.023389
     6  C    0.067299   0.003664
     7  C    0.114022   0.029569
     8  C    0.120708   0.005893
     9  O   -0.353092   0.497062
    10  C    0.114022   0.029569
    11  C    0.120708   0.005893
 APT charges:
               1
     1  C    0.077795
     2  C    0.077342
     3  C    0.386658
     4  N   -0.113745
     5  C    0.386658
     6  C    0.077343
     7  C   -0.053583
     8  C   -0.002874
     9  O   -0.610033
    10  C   -0.053583
    11  C   -0.002874
    12  H   -0.040759
    13  H   -0.026938
    14  H   -0.028306
    15  H   -0.041364
    16  H   -0.041365
    17  H   -0.028305
    18  H    0.014269
    19  H   -0.001975
    20  H    0.002224
    21  H   -0.010732
    22  H   -0.001667
    23  H    0.016847
    24  H   -0.001975
    25  H    0.014269
    26  H    0.002223
    27  H   -0.010732
    28  H    0.016849
    29  H   -0.001666
 Sum of APT charges =   0.00000
 APT charges with hydrogens summed into heavy atoms:
               1
     1  C    0.010099
     2  C    0.007672
     3  C    0.386658
     4  N   -0.113745
     5  C    0.386658
     6  C    0.007673
     7  C   -0.039065
     8  C    0.001575
     9  O   -0.610033
    10  C   -0.039066
    11  C    0.001576
 Electronic spatial extent (au):  <R**2>=           1678.5471
 Charge=             -0.0000 electrons
 Dipole moment (field-independent basis, Debye):
    X=              0.0001    Y=              4.0430    Z=              0.3087  Tot=              4.0548
 Quadrupole moment (field-independent basis, Debye-Ang):
   XX=            -65.0947   YY=            -76.2882   ZZ=            -68.7111
   XY=             -0.0001   XZ=              0.0001   YZ=             -0.7330
 Traceless Quadrupole moment (field-independent basis, Debye-Ang):
   XX=              4.9366   YY=             -6.2569   ZZ=              1.3202
   XY=             -0.0001   XZ=              0.0001   YZ=             -0.7330
 Octapole moment (field-independent basis, Debye-Ang**2):
  XXX=             -0.0034  YYY=             12.3550  ZZZ=             -2.9286  XYY=             -0.0011
  XXY=             -0.1342  XXZ=              1.5736  XZZ=             -0.0011  YZZ=             -1.7168
  YYZ=              1.2713  XYZ=              0.0000
 Hexadecapole moment (field-independent basis, Debye-Ang**3):
 XXXX=          -1105.7222 YYYY=           -713.3606 ZZZZ=           -427.7885 XXXY=              0.0038
 XXXZ=             -0.0048 YYYX=              0.0039 YYYZ=             -8.2840 ZZZX=             -0.0060
 ZZZY=              1.4242 XXYY=           -301.8860 XXZZ=           -266.9978 YYZZ=           -184.7402
 XXYZ=             -0.0670 YYXZ=             -0.0020 ZZXY=              0.0015
 N-N= 7.163604257844D+02 E-N=-2.553657351175D+03  KE= 4.781654797009D+02
  Exact polarizability: 136.211  -0.000 134.927   0.000  -0.024 122.390
 Approx polarizability: 107.864   0.000 114.709   0.000   0.024 103.549
                          Isotropic Fermi Contact Couplings
        Atom                 a.u.       MegaHertz       Gauss      10(-4) cm-1
     1  C(13)             -0.00086      -0.96299      -0.34362      -0.32122
     2  C(13)              0.00314       3.52744       1.25868       1.17663
     3  C(13)             -0.01574     -17.69228      -6.31304      -5.90151
     4  N(14)              0.20036      64.73567      23.09930      21.59350
     5  C(13)             -0.01574     -17.69228      -6.31305      -5.90151
     6  C(13)              0.00314       3.52746       1.25869       1.17664
     7  C(13)              0.02322      26.10907       9.31637       8.70905
     8  C(13)              0.00950      10.67821       3.81025       3.56187
     9  O(17)              0.19657    -119.16058     -42.51946     -39.74769
    10  C(13)              0.02322      26.10907       9.31637       8.70905
    11  C(13)              0.00950      10.67822       3.81025       3.56187
    12  H(1)               0.00016       0.70424       0.25129       0.23491
    13  H(1)               0.00005       0.21179       0.07557       0.07065
    14  H(1)              -0.00027      -1.20463      -0.42984      -0.40182
    15  H(1)              -0.00009      -0.42386      -0.15124      -0.14138
    16  H(1)              -0.00009      -0.42386      -0.15124      -0.14138
    17  H(1)              -0.00027      -1.20463      -0.42984      -0.40182
    18  H(1)              -0.00064      -2.84902      -1.01660      -0.95033
    19  H(1)               0.00086       3.85995       1.37733       1.28754
    20  H(1)              -0.00038      -1.68155      -0.60002      -0.56090
    21  H(1)              -0.00022      -0.97016      -0.34618      -0.32361
    22  H(1)              -0.00041      -1.81979      -0.64935      -0.60702
    23  H(1)              -0.00021      -0.91896      -0.32791      -0.30653
    24  H(1)               0.00086       3.85995       1.37733       1.28754
    25  H(1)              -0.00064      -2.84902      -1.01660      -0.95033
    26  H(1)              -0.00038      -1.68153      -0.60001      -0.56090
    27  H(1)              -0.00022      -0.97016      -0.34618      -0.32361
    28  H(1)              -0.00021      -0.91897      -0.32791      -0.30653
    29  H(1)              -0.00041      -1.81979      -0.64935      -0.60702
 --------------------------------------------------------
       Center         ----  Spin Dipole Couplings  ----
                      3XX-RR        3YY-RR        3ZZ-RR
 --------------------------------------------------------
     1   Atom       -0.004216      0.007703     -0.003488
     2   Atom       -0.003008      0.009124     -0.006116
     3   Atom        0.010756     -0.001813     -0.008943
     4   Atom       -0.627744     -0.615782      1.243526
     5   Atom        0.010756     -0.001814     -0.008942
     6   Atom       -0.003007      0.009124     -0.006116
     7   Atom       -0.008945     -0.018505      0.027451
     8   Atom        0.016289     -0.006924     -0.009365
     9   Atom       -1.011655     -1.071082      2.082737
    10   Atom       -0.008944     -0.018505      0.027449
    11   Atom        0.016289     -0.006924     -0.009365
    12   Atom       -0.001765      0.003426     -0.001660
    13   Atom       -0.002821      0.004740     -0.001919
    14   Atom        0.000004      0.002431     -0.002436
    15   Atom       -0.002082      0.003897     -0.001816
    16   Atom       -0.002081      0.003897     -0.001816
    17   Atom        0.000005      0.002431     -0.002436
    18   Atom        0.000477     -0.003498      0.003021
    19   Atom        0.004346     -0.002921     -0.001426
    20   Atom       -0.002860     -0.001690      0.004549
    21   Atom        0.004773     -0.005867      0.001094
    22   Atom        0.005388     -0.002403     -0.002984
    23   Atom        0.011624     -0.004954     -0.006670
    24   Atom        0.004346     -0.002920     -0.001426
    25   Atom        0.000478     -0.003497      0.003020
    26   Atom       -0.002860     -0.001690      0.004549
    27   Atom        0.004772     -0.005867      0.001094
    28   Atom        0.011624     -0.004955     -0.006669
    29   Atom        0.005387     -0.002403     -0.002984
 --------------------------------------------------------
                        XY            XZ            YZ
 --------------------------------------------------------
     1   Atom        0.000000     -0.000000      0.000651
     2   Atom       -0.006452      0.000496      0.000132
     3   Atom       -0.013510     -0.008302      0.003684
     4   Atom        0.000001     -0.000031     -0.037224
     5   Atom        0.013509      0.008303      0.003684
     6   Atom        0.006452     -0.000496      0.000132
     7   Atom       -0.000786      0.025158     -0.007180
     8   Atom       -0.004274     -0.009719      0.002689
     9   Atom       -0.000003     -0.000047      0.095738
    10   Atom        0.000786     -0.025160     -0.007179
    11   Atom        0.004273      0.009720      0.002689
    12   Atom        0.000000     -0.000000     -0.000207
    13   Atom        0.000000      0.000000      0.002874
    14   Atom       -0.003752     -0.000015     -0.000064
    15   Atom       -0.004619      0.002233     -0.004621
    16   Atom        0.004620     -0.002233     -0.004621
    17   Atom        0.003752      0.000015     -0.000064
    18   Atom        0.001927      0.010203      0.000244
    19   Atom        0.003845      0.003165      0.000878
    20   Atom        0.001473      0.002557      0.006419
    21   Atom        0.001286     -0.008781     -0.001008
    22   Atom        0.002336     -0.001574     -0.000227
    23   Atom       -0.002703     -0.002368      0.000017
    24   Atom       -0.003845     -0.003165      0.000878
    25   Atom       -0.001927     -0.010203      0.000244
    26   Atom       -0.001473     -0.002557      0.006419
    27   Atom       -0.001286      0.008781     -0.001008
    28   Atom        0.002703      0.002368      0.000017
    29   Atom       -0.002336      0.001574     -0.000227
 --------------------------------------------------------


 ---------------------------------------------------------------------------------
              Anisotropic Spin Dipole Couplings in Principal Axis System
 ---------------------------------------------------------------------------------

       Atom             a.u.   MegaHertz   Gauss  10(-4) cm-1        Axes

              Baa    -0.0042    -0.566    -0.202    -0.189  1.0000 -0.0000  0.0000
     1 C(13)  Bbb    -0.0035    -0.473    -0.169    -0.158 -0.0000 -0.0579  0.9983
              Bcc     0.0077     1.039     0.371     0.346  0.0000  0.9983  0.0579
 
              Baa    -0.0065    -0.871    -0.311    -0.290 -0.5444 -0.2317  0.8062
     2 C(13)  Bbb    -0.0054    -0.728    -0.260    -0.243  0.7389  0.3223  0.5917
              Bcc     0.0119     1.599     0.570     0.533 -0.3970  0.9178 -0.0042
 
              Baa    -0.0124    -1.665    -0.594    -0.556  0.4874  0.3421  0.8034
     3 C(13)  Bbb    -0.0096    -1.285    -0.458    -0.429  0.3113  0.7916 -0.5259
              Bcc     0.0220     2.950     1.053     0.984  0.8158 -0.5064 -0.2793
 
              Baa    -0.6277   -24.211    -8.639    -8.076  1.0000 -0.0000  0.0000
     4 N(14)  Bbb    -0.6165   -23.778    -8.485    -7.932  0.0000  0.9998  0.0200
              Bcc     1.2443    47.989    17.124    16.007 -0.0000 -0.0200  0.9998
 
              Baa    -0.0124    -1.665    -0.594    -0.556 -0.4874  0.3421  0.8034
     5 C(13)  Bbb    -0.0096    -1.285    -0.458    -0.429 -0.3113  0.7916 -0.5259
              Bcc     0.0220     2.950     1.053     0.984  0.8158  0.5064  0.2793
 
              Baa    -0.0065    -0.871    -0.311    -0.290  0.5444 -0.2318  0.8062
     6 C(13)  Bbb    -0.0054    -0.728    -0.260    -0.243  0.7390 -0.3224 -0.5916
              Bcc     0.0119     1.599     0.570     0.533  0.3970  0.9178 -0.0042
 
              Baa    -0.0234    -3.137    -1.120    -1.047  0.7314 -0.5243 -0.4361
     7 C(13)  Bbb    -0.0177    -2.374    -0.847    -0.792  0.5142  0.8441 -0.1523
              Bcc     0.0411     5.511     1.966     1.838  0.4479 -0.1128  0.8869
 
              Baa    -0.0129    -1.731    -0.618    -0.577  0.2788 -0.2211  0.9346
     8 C(13)  Bbb    -0.0075    -1.011    -0.361    -0.337  0.2359  0.9591  0.1565
              Bcc     0.0204     2.742     0.979     0.915  0.9309 -0.1768 -0.3195
 
              Baa    -1.0740    77.713    27.730    25.922  0.0000  0.9995 -0.0303
     9 O(17)  Bbb    -1.0117    73.203    26.121    24.418  1.0000 -0.0000  0.0000
              Bcc     2.0856  -150.915   -53.850   -50.340 -0.0000  0.0303  0.9995
 
              Baa    -0.0234    -3.137    -1.120    -1.047  0.7314  0.5242  0.4361
    10 C(13)  Bbb    -0.0177    -2.374    -0.847    -0.792 -0.5141  0.8441 -0.1523
              Bcc     0.0411     5.511     1.966     1.838 -0.4479 -0.1128  0.8869
 
              Baa    -0.0129    -1.731    -0.618    -0.577 -0.2788 -0.2210  0.9346
    11 C(13)  Bbb    -0.0075    -1.011    -0.361    -0.337 -0.2359  0.9591  0.1565
              Bcc     0.0204     2.742     0.979     0.915  0.9309  0.1768  0.3196
 
              Baa    -0.0018    -0.942    -0.336    -0.314  1.0000 -0.0000  0.0000
    12 H(1)   Bbb    -0.0017    -0.890    -0.318    -0.297 -0.0000  0.0407  0.9992
              Bcc     0.0034     1.832     0.654     0.611  0.0000  0.9992 -0.0407
 
              Baa    -0.0030    -1.594    -0.569    -0.532 -0.0000 -0.3485  0.9373
    13 H(1)   Bbb    -0.0028    -1.505    -0.537    -0.502  1.0000 -0.0000  0.0000
              Bcc     0.0058     3.099     1.106     1.034  0.0000  0.9373  0.3485
 
              Baa    -0.0027    -1.459    -0.520    -0.487  0.7972  0.5812  0.1633
    14 H(1)   Bbb    -0.0024    -1.295    -0.462    -0.432 -0.1354 -0.0916  0.9866
              Bcc     0.0052     2.754     0.983     0.919 -0.5883  0.8086 -0.0057
 
              Baa    -0.0047    -2.513    -0.897    -0.838  0.6903  0.5930  0.4144
    15 H(1)   Bbb    -0.0042    -2.220    -0.792    -0.741 -0.5864  0.1230  0.8007
              Bcc     0.0089     4.733     1.689     1.579 -0.4238  0.7957 -0.4327
 
              Baa    -0.0047    -2.513    -0.897    -0.838  0.6903 -0.5931 -0.4144
    16 H(1)   Bbb    -0.0042    -2.220    -0.792    -0.741  0.5863  0.1230  0.8007
              Bcc     0.0089     4.733     1.689     1.579  0.4239  0.7957 -0.4327
 
              Baa    -0.0027    -1.459    -0.520    -0.487  0.7972 -0.5812 -0.1633
    17 H(1)   Bbb    -0.0024    -1.295    -0.462    -0.432  0.1353 -0.0916  0.9866
              Bcc     0.0052     2.754     0.983     0.919  0.5883  0.8086 -0.0056
 
              Baa    -0.0088    -4.720    -1.684    -1.575  0.7390 -0.2374 -0.6305
    18 H(1)   Bbb    -0.0033    -1.772    -0.632    -0.591  0.1176  0.9669 -0.2264
              Bcc     0.0122     6.492     2.316     2.165  0.6634  0.0932  0.7425
 
              Baa    -0.0047    -2.490    -0.888    -0.830 -0.4419  0.8758  0.1943
    19 H(1)   Bbb    -0.0026    -1.368    -0.488    -0.456 -0.2392 -0.3238  0.9154
              Bcc     0.0072     3.857     1.376     1.287  0.8646  0.3580  0.3525
 
              Baa    -0.0057    -3.048    -1.088    -1.017  0.0480  0.8414 -0.5383
    20 H(1)   Bbb    -0.0036    -1.905    -0.680    -0.636  0.9706 -0.1667 -0.1739
              Bcc     0.0093     4.953     1.767     1.652  0.2360  0.5141  0.8246
 
              Baa    -0.0061    -3.232    -1.153    -1.078  0.5614 -0.5586  0.6106
    21 H(1)   Bbb    -0.0060    -3.200    -1.142    -1.067  0.2952  0.8245  0.4828
              Bcc     0.0121     6.431     2.295     2.145  0.7731  0.0908 -0.6277
 
              Baa    -0.0034    -1.800    -0.642    -0.601  0.2753 -0.4660  0.8408
    22 H(1)   Bbb    -0.0029    -1.562    -0.557    -0.521 -0.1402  0.8458  0.5147
              Bcc     0.0063     3.363     1.200     1.122  0.9511  0.2596 -0.1675
 
              Baa    -0.0070    -3.753    -1.339    -1.252  0.1504  0.1878  0.9706
    23 H(1)   Bbb    -0.0053    -2.833    -1.011    -0.945  0.1259  0.9702 -0.2072
              Bcc     0.0123     6.585     2.350     2.197  0.9806 -0.1534 -0.1223
 
              Baa    -0.0047    -2.490    -0.888    -0.830  0.4419  0.8758  0.1943
    24 H(1)   Bbb    -0.0026    -1.368    -0.488    -0.456  0.2391 -0.3238  0.9154
              Bcc     0.0072     3.857     1.376     1.287  0.8646 -0.3581 -0.3525
 
              Baa    -0.0088    -4.720    -1.684    -1.575  0.7390  0.2374  0.6305
    25 H(1)   Bbb    -0.0033    -1.772    -0.632    -0.591 -0.1175  0.9669 -0.2264
              Bcc     0.0122     6.492     2.316     2.165 -0.6634  0.0932  0.7424
 
              Baa    -0.0057    -3.048    -1.088    -1.017 -0.0480  0.8414 -0.5383
    26 H(1)   Bbb    -0.0036    -1.905    -0.680    -0.636  0.9706  0.1666  0.1739
              Bcc     0.0093     4.953     1.767     1.652 -0.2360  0.5141  0.8246
 
              Baa    -0.0061    -3.232    -1.153    -1.078 -0.5614 -0.5586  0.6106
    27 H(1)   Bbb    -0.0060    -3.200    -1.142    -1.067 -0.2952  0.8245  0.4828
              Bcc     0.0121     6.431     2.295     2.145  0.7731 -0.0908  0.6278
 
              Baa    -0.0070    -3.753    -1.339    -1.252 -0.1504  0.1878  0.9706
    28 H(1)   Bbb    -0.0053    -2.833    -1.011    -0.945 -0.1259  0.9702 -0.2072
              Bcc     0.0123     6.585     2.350     2.197  0.9806  0.1533  0.1223
 
              Baa    -0.0034    -1.800    -0.642    -0.601 -0.2753 -0.4660  0.8408
    29 H(1)   Bbb    -0.0029    -1.562    -0.557    -0.521  0.1402  0.8458  0.5147
              Bcc     0.0063     3.363     1.200     1.122  0.9511 -0.2596  0.1676
 

 ---------------------------------------------------------------------------------

 No NMR shielding tensors so no spin-rotation constants.
 Leave Link  601 at Wed Feb 28 21:03:14 2024, MaxMem=  2147483648 cpu:               6.1 elap:               0.2
 (Enter /software/gaussian-16RevA.03-el7-x86_64/g16/l701.exe)
 ... and contract with generalized density number  0.
 Compute integral second derivatives.
 R6Disp: Adding Grimme-D2 dispersion energy 2nd derivatives to the Hessian.
   1 Symmetry operations used in ECPInt.
 ECPInt:  NShTT=    5253 NPrTT=   21107 LenC2=    5228 LenP2D=   16397.
 LDataN:  DoStor=T MaxTD1= 6 Len=  172
 D2PCM: PCM CHGder 2nd derivatives, FixD1E=F FixD2E=F DoIter=F DoCFld=F I1PDM=0
 GePol: Maximum number of non-zero 2nd derivatives   =     166
 Leave Link  701 at Wed Feb 28 21:03:16 2024, MaxMem=  2147483648 cpu:              70.8 elap:               2.6
 (Enter /software/gaussian-16RevA.03-el7-x86_64/g16/l702.exe)
 L702 exits ... SP integral derivatives will be done elsewhere.
 Leave Link  702 at Wed Feb 28 21:03:16 2024, MaxMem=  2147483648 cpu:               1.3 elap:               0.1
 (Enter /software/gaussian-16RevA.03-el7-x86_64/g16/l703.exe)
 Integral derivatives from FoFJK, PRISM(SPDF).
 Compute integral second derivatives, UseDBF=F ICtDFT=           0.
 Calling FoFJK, ICntrl=    100127 FMM=F ISym2X=0 I1Cent= 0 IOpClX= 1 NMat=1 NMatS=1 NMatT=0.
 FoFJK:  IHMeth= 1 ICntrl=  100127 DoSepK=T KAlg= 0 I1Cent=           0 FoldK=F
 IRaf=         1 NMat=       1 IRICut=       1 DoRegI=T DoRafI=F ISym2E= 0 IDoP0=0 IntGTp=1.
 FoFCou: FMM=F IPFlag=           0 FMFlag=      100000 FMFlg1=         800
         NFxFlg=           0 DoJE=F BraDBF=F KetDBF=F FulRan=T
         wScrn=  0.000000 ICntrl=    100527 IOpCl=  0 I1Cent=           0 NGrid=           0
         NMat0=    1 NMatS0=      1 NMatT0=    0 NMatD0=    1 NMtDS0=    0 NMtDT0=    0
 Symmetry not used in FoFCou.
 Leave Link  703 at Wed Feb 28 21:03:52 2024, MaxMem=  2147483648 cpu:             999.6 elap:              35.7
 (Enter /software/gaussian-16RevA.03-el7-x86_64/g16/l716.exe)
 Dipole        = 2.91692363D-05 1.59064643D+00 1.21441764D-01
 Polarizability= 1.36210793D+02-1.55145393D-06 1.34927247D+02
                 2.20347670D-04-2.42257871D-02 1.22389511D+02
 Full mass-weighted force constant matrix:
 Low frequencies ---   -3.4603   -0.0009    0.0005    0.0006    7.6792   15.7841
 Low frequencies ---   79.4346  124.3870  209.0989
 Diagonal vibrational polarizability:
        7.9423909       4.4080729      28.2031405
 Harmonic frequencies (cm**-1), IR intensities (KM/Mole), Raman scattering
 activities (A**4/AMU), depolarization ratios for plane and unpolarized
 incident light, reduced masses (AMU), force constants (mDyne/A),
 and normal coordinates:
                      1                      2                      3
                      A                      A                      A
 Frequencies --     79.4186               124.3767               209.0978
 Red. masses --      4.2359                 2.4417                 2.7315
 Frc consts  --      0.0157                 0.0223                 0.0704
 IR Inten    --      5.5642                 0.0700                 2.4200
  Atom  AN      X      Y      Z        X      Y      Z        X      Y      Z
     1   6    -0.00  -0.01   0.09     0.07  -0.00   0.00     0.00   0.02  -0.01
     2   6     0.01   0.02   0.02    -0.02   0.05   0.15    -0.00   0.02  -0.01
     3   6    -0.02   0.00  -0.03    -0.00  -0.00   0.02     0.02   0.00  -0.05
     4   7    -0.00  -0.00   0.11     0.00   0.00   0.00     0.00  -0.02  -0.13
     5   6     0.02   0.00  -0.03    -0.00   0.00  -0.02    -0.02   0.00  -0.05
     6   6    -0.01   0.02   0.02    -0.02  -0.05  -0.15     0.00   0.02  -0.01
     7   6     0.15  -0.03  -0.08    -0.03   0.15  -0.01    -0.15  -0.07  -0.02
     8   6    -0.08   0.01  -0.16     0.02  -0.08   0.08     0.07   0.05   0.01
     9   8    -0.00   0.01   0.32    -0.01   0.00   0.00    -0.00   0.00   0.21
    10   6    -0.15  -0.03  -0.08    -0.03  -0.15   0.01     0.15  -0.07  -0.02
    11   6     0.08   0.01  -0.16     0.02   0.08  -0.08    -0.07   0.05   0.01
    12   1    -0.00   0.02   0.17     0.04  -0.00  -0.00     0.00   0.02  -0.01
    13   1    -0.00  -0.11   0.09     0.21  -0.00   0.00     0.00   0.02  -0.01
    14   1     0.00   0.01   0.00     0.04   0.04   0.34    -0.00  -0.00   0.03
    15   1     0.05   0.07   0.02    -0.19   0.15   0.15    -0.02   0.05  -0.01
    16   1    -0.05   0.07   0.02    -0.19  -0.15  -0.15     0.02   0.05  -0.01
    17   1    -0.00   0.01   0.00     0.04  -0.04  -0.34     0.00  -0.00   0.03
    18   1     0.27  -0.05  -0.12     0.02   0.18   0.08    -0.25  -0.07  -0.06
    19   1     0.13   0.06  -0.14    -0.05   0.21  -0.01    -0.14  -0.13   0.09
    20   1     0.14  -0.12  -0.01    -0.07   0.17  -0.07    -0.16  -0.05  -0.05
    21   1    -0.18   0.10  -0.14     0.06  -0.18   0.07     0.26   0.26  -0.06
    22   1    -0.05  -0.03  -0.22     0.02  -0.08   0.06     0.12  -0.07   0.29
    23   1    -0.11  -0.02  -0.24     0.01  -0.04   0.19    -0.12  -0.03  -0.13
    24   1    -0.13   0.06  -0.14    -0.05  -0.21   0.01     0.14  -0.14   0.09
    25   1    -0.27  -0.05  -0.12     0.02  -0.18  -0.08     0.25  -0.07  -0.06
    26   1    -0.14  -0.12  -0.01    -0.07  -0.17   0.07     0.16  -0.05  -0.05
    27   1     0.18   0.10  -0.14     0.06   0.18  -0.07    -0.26   0.26  -0.06
    28   1     0.11  -0.02  -0.24     0.01   0.04  -0.19     0.12  -0.03  -0.13
    29   1     0.05  -0.03  -0.22     0.02   0.08  -0.06    -0.12  -0.07   0.29
                      4                      5                      6
                      A                      A                      A
 Frequencies --    217.2333               250.9016               265.6768
 Red. masses --      1.0577                 1.1361                 1.0708
 Frc consts  --      0.0294                 0.0421                 0.0445
 IR Inten    --      0.0051                 1.0294                 0.0056
  Atom  AN      X      Y      Z        X      Y      Z        X      Y      Z
     1   6     0.01  -0.00  -0.00     0.00  -0.02   0.02     0.01   0.00  -0.00
     2   6     0.00   0.01   0.02     0.01  -0.01  -0.01    -0.00   0.02   0.01
     3   6     0.01   0.01   0.01    -0.01  -0.00   0.00    -0.00   0.01  -0.00
     4   7     0.00   0.00   0.00    -0.00  -0.01   0.01    -0.00   0.00  -0.00
     5   6     0.01  -0.01  -0.01     0.01  -0.00   0.00    -0.00  -0.01   0.00
     6   6     0.00  -0.01  -0.02    -0.01  -0.01  -0.01    -0.00  -0.02  -0.01
     7   6    -0.02  -0.02  -0.01     0.04   0.04  -0.00    -0.02  -0.04   0.00
     8   6     0.02   0.01  -0.01     0.02  -0.01   0.02     0.01   0.01  -0.00
     9   8    -0.01  -0.00  -0.00     0.00  -0.01  -0.04     0.01   0.00   0.00
    10   6    -0.02   0.02   0.01    -0.04   0.04  -0.00    -0.02   0.04  -0.00
    11   6     0.02  -0.01   0.01    -0.02  -0.01   0.02     0.01  -0.01   0.00
    12   1     0.01  -0.00  -0.00     0.00  -0.01   0.05     0.02   0.00  -0.00
    13   1     0.03  -0.00   0.00     0.00  -0.05   0.02     0.02   0.00  -0.00
    14   1     0.01   0.01   0.05    -0.00   0.00  -0.05     0.01   0.02   0.02
    15   1    -0.03   0.02   0.02     0.04  -0.02  -0.01    -0.01   0.03   0.01
    16   1    -0.03  -0.02  -0.02    -0.04  -0.02  -0.01    -0.01  -0.03  -0.01
    17   1     0.01  -0.01  -0.05     0.00   0.00  -0.05     0.01  -0.02  -0.02
    18   1     0.29  -0.08  -0.12     0.31   0.00  -0.04     0.13  -0.08  -0.07
    19   1    -0.13   0.30   0.08    -0.05   0.30  -0.00    -0.07   0.11   0.05
    20   1    -0.26  -0.30   0.02    -0.11  -0.15   0.03    -0.13  -0.18   0.03
    21   1     0.12   0.18  -0.05     0.18   0.23  -0.04    -0.16  -0.29   0.06
    22   1     0.06  -0.09   0.15     0.10  -0.17   0.27    -0.10   0.23  -0.28
    23   1    -0.12  -0.05  -0.13    -0.21  -0.09  -0.13     0.31   0.12   0.19
    24   1    -0.13  -0.30  -0.08     0.05   0.30  -0.00    -0.07  -0.11  -0.05
    25   1     0.29   0.08   0.12    -0.31   0.00  -0.04     0.13   0.08   0.07
    26   1    -0.26   0.30  -0.02     0.11  -0.15   0.03    -0.13   0.18  -0.03
    27   1     0.12  -0.18   0.05    -0.18   0.23  -0.04    -0.16   0.29  -0.06
    28   1    -0.12   0.05   0.13     0.21  -0.09  -0.13     0.31  -0.12  -0.19
    29   1     0.06   0.09  -0.15    -0.10  -0.17   0.27    -0.10  -0.23   0.28
                      7                      8                      9
                      A                      A                      A
 Frequencies --    278.3543               301.6237               301.7226
 Red. masses --      1.3914                 2.1100                 1.9930
 Frc consts  --      0.0635                 0.1131                 0.1069
 IR Inten    --      0.8888                 0.0133                 0.0775
  Atom  AN      X      Y      Z        X      Y      Z        X      Y      Z
     1   6    -0.00  -0.02   0.02     0.00  -0.10   0.21    -0.04  -0.00   0.00
     2   6     0.02  -0.02  -0.01     0.03   0.00  -0.01     0.02  -0.03  -0.09
     3   6     0.00  -0.01  -0.01     0.00  -0.00  -0.06    -0.01  -0.00  -0.04
     4   7    -0.00  -0.04  -0.02     0.00  -0.01  -0.06    -0.01  -0.00  -0.00
     5   6    -0.00  -0.01  -0.01    -0.00  -0.00  -0.06    -0.01   0.00   0.04
     6   6    -0.02  -0.02  -0.01    -0.03   0.00  -0.01     0.02   0.03   0.09
     7   6    -0.00  -0.00  -0.01    -0.03   0.11  -0.04     0.11   0.09   0.02
     8   6     0.08   0.07   0.02     0.02  -0.06   0.01    -0.08  -0.07   0.03
     9   8    -0.00  -0.04   0.04     0.00  -0.01   0.01    -0.03   0.00   0.00
    10   6     0.00  -0.00  -0.01     0.03   0.11  -0.04     0.11  -0.09  -0.02
    11   6    -0.08   0.07   0.02    -0.02  -0.06   0.01    -0.08   0.07  -0.03
    12   1    -0.00  -0.01   0.07     0.00   0.02   0.51    -0.03   0.00   0.00
    13   1    -0.00  -0.07   0.03     0.00  -0.41   0.23    -0.13  -0.00   0.00
    14   1     0.01  -0.02  -0.05    -0.00  -0.01  -0.07    -0.02  -0.02  -0.20
    15   1     0.06  -0.02  -0.01     0.15   0.08  -0.01     0.12  -0.08  -0.09
    16   1    -0.06  -0.02  -0.01    -0.15   0.08  -0.01     0.12   0.08   0.09
    17   1    -0.01  -0.02  -0.05     0.00  -0.01  -0.07    -0.02   0.02   0.20
    18   1     0.23  -0.04  -0.07    -0.15   0.16   0.09     0.38   0.09   0.07
    19   1    -0.08   0.23   0.01     0.01   0.00  -0.08     0.04   0.33  -0.10
    20   1    -0.14  -0.18   0.02     0.05   0.26  -0.12     0.04  -0.02   0.06
    21   1     0.02  -0.15   0.04     0.04  -0.12   0.00    -0.16  -0.14   0.06
    22   1    -0.03   0.29  -0.13     0.02  -0.07   0.01    -0.05  -0.11  -0.08
    23   1     0.36   0.15   0.15    -0.01  -0.03   0.09    -0.10  -0.05   0.09
    24   1     0.08   0.23   0.01    -0.01   0.00  -0.08     0.04  -0.33   0.10
    25   1    -0.23  -0.04  -0.07     0.15   0.16   0.09     0.38  -0.09  -0.07
    26   1     0.14  -0.18   0.02    -0.05   0.26  -0.12     0.04   0.02  -0.06
    27   1    -0.03  -0.15   0.04    -0.04  -0.12   0.00    -0.16   0.14  -0.06
    28   1    -0.36   0.15   0.15     0.01  -0.03   0.09    -0.10   0.05  -0.09
    29   1     0.03   0.29  -0.13    -0.02  -0.07   0.01    -0.05   0.11   0.08
                     10                     11                     12
                      A                      A                      A
 Frequencies --    316.7347               331.9092               342.3216
 Red. masses --      2.6996                 1.7977                 2.8003
 Frc consts  --      0.1596                 0.1167                 0.1933
 IR Inten    --      1.3151                 0.0761                 2.6708
  Atom  AN      X      Y      Z        X      Y      Z        X      Y      Z
     1   6    -0.11   0.00  -0.00    -0.00  -0.03  -0.02     0.00  -0.02  -0.00
     2   6    -0.13   0.05   0.02    -0.01  -0.02  -0.02    -0.07   0.06  -0.01
     3   6    -0.00   0.03  -0.05    -0.04  -0.01   0.00    -0.05   0.05  -0.04
     4   7     0.00   0.00  -0.00    -0.00  -0.01   0.03     0.00   0.13  -0.07
     5   6    -0.00  -0.03   0.05     0.04  -0.01   0.00     0.05   0.05  -0.04
     6   6    -0.13  -0.05  -0.02     0.01  -0.02  -0.02     0.07   0.06  -0.01
     7   6     0.14  -0.10   0.01     0.12  -0.01  -0.01     0.07  -0.09  -0.05
     8   6     0.06  -0.00   0.09     0.12   0.06   0.03     0.05  -0.12   0.09
     9   8    -0.08   0.00  -0.00    -0.00  -0.02  -0.00     0.00   0.15   0.03
    10   6     0.14   0.10  -0.01    -0.12  -0.01  -0.01    -0.07  -0.09  -0.05
    11   6     0.06   0.00  -0.09    -0.12   0.06   0.03    -0.05  -0.12   0.09
    12   1    -0.05   0.00  -0.00    -0.00  -0.03  -0.02    -0.00   0.02   0.09
    13   1    -0.08   0.00  -0.00    -0.00  -0.04  -0.02    -0.00  -0.10   0.00
    14   1    -0.12  -0.02   0.17     0.00   0.01  -0.03    -0.02   0.10   0.07
    15   1    -0.25   0.17   0.02    -0.00  -0.04  -0.02    -0.13   0.09  -0.01
    16   1    -0.25  -0.17  -0.02     0.00  -0.04  -0.02     0.13   0.09  -0.01
    17   1    -0.12   0.02  -0.17    -0.00   0.01  -0.03     0.02   0.10   0.07
    18   1     0.18  -0.12  -0.05    -0.12   0.03   0.06     0.14  -0.14  -0.20
    19   1     0.17  -0.13  -0.11     0.22  -0.29  -0.12     0.05  -0.04  -0.03
    20   1     0.25  -0.13   0.15     0.33   0.20  -0.01     0.04  -0.22   0.05
    21   1     0.15  -0.02   0.07     0.25   0.15  -0.02     0.10  -0.32   0.08
    22   1     0.05   0.01   0.18     0.10   0.08   0.19     0.07  -0.14   0.03
    23   1     0.05   0.00   0.12     0.10   0.04  -0.05     0.01  -0.05   0.30
    24   1     0.17   0.13   0.11    -0.22  -0.29  -0.12    -0.05  -0.04  -0.03
    25   1     0.18   0.12   0.05     0.12   0.03   0.06    -0.14  -0.14  -0.20
    26   1     0.25   0.13  -0.15    -0.33   0.20  -0.01    -0.04  -0.22   0.05
    27   1     0.15   0.02  -0.07    -0.25   0.15  -0.02    -0.10  -0.32   0.08
    28   1     0.05  -0.00  -0.12    -0.10   0.04  -0.05    -0.01  -0.05   0.30
    29   1     0.05  -0.01  -0.18    -0.10   0.08   0.19    -0.07  -0.14   0.03
                     13                     14                     15
                      A                      A                      A
 Frequencies --    396.4213               417.2176               418.9120
 Red. masses --      3.5020                 2.4972                 1.8331
 Frc consts  --      0.3242                 0.2561                 0.1895
 IR Inten    --     16.8707                 2.6151                 1.5744
  Atom  AN      X      Y      Z        X      Y      Z        X      Y      Z
     1   6    -0.09   0.00  -0.00    -0.07   0.00   0.00    -0.00   0.03  -0.03
     2   6    -0.05  -0.06   0.02     0.01  -0.07  -0.03    -0.07   0.02   0.11
     3   6     0.01  -0.05   0.02    -0.00  -0.00   0.12    -0.01  -0.04  -0.03
     4   7     0.06   0.00   0.00    -0.03   0.00   0.00    -0.00  -0.06  -0.06
     5   6     0.01   0.05  -0.02    -0.00   0.00  -0.12     0.01  -0.04  -0.03
     6   6    -0.05   0.06  -0.02     0.01   0.07   0.03     0.07   0.02   0.11
     7   6    -0.03  -0.08  -0.02    -0.02  -0.00  -0.14     0.01   0.07  -0.04
     8   6    -0.07  -0.14   0.04     0.11  -0.06   0.04     0.04  -0.03  -0.02
     9   8     0.30  -0.00   0.00    -0.10   0.00  -0.00    -0.00  -0.06   0.01
    10   6    -0.03   0.08   0.02    -0.02   0.00   0.14    -0.01   0.07  -0.04
    11   6    -0.07   0.14  -0.04     0.11   0.06  -0.04    -0.04  -0.03  -0.02
    12   1    -0.15   0.00  -0.00    -0.12   0.00   0.00    -0.00  -0.04  -0.22
    13   1    -0.08  -0.00  -0.00    -0.12  -0.00   0.00    -0.00   0.25  -0.05
    14   1    -0.07  -0.11   0.05    -0.05  -0.05  -0.24     0.01  -0.02   0.40
    15   1    -0.07  -0.04   0.02     0.16  -0.25  -0.03    -0.32   0.19   0.12
    16   1    -0.07   0.04  -0.02     0.16   0.25   0.03     0.32   0.19   0.12
    17   1    -0.07   0.11  -0.05    -0.05   0.05   0.24    -0.01  -0.02   0.40
    18   1    -0.08  -0.13  -0.16    -0.03  -0.00  -0.15     0.08   0.11   0.10
    19   1    -0.02  -0.14   0.07    -0.03  -0.00  -0.12    -0.01   0.15  -0.09
    20   1    -0.04  -0.15   0.03    -0.04  -0.00  -0.15    -0.01   0.12  -0.11
    21   1    -0.07  -0.21   0.04     0.28  -0.22  -0.01     0.05  -0.06  -0.03
    22   1     0.03  -0.31  -0.00     0.08  -0.02   0.13     0.03  -0.02  -0.02
    23   1    -0.27  -0.13   0.15     0.10  -0.00   0.21     0.06  -0.03  -0.00
    24   1    -0.02   0.14  -0.07    -0.03   0.00   0.12     0.01   0.15  -0.09
    25   1    -0.08   0.13   0.16    -0.03   0.00   0.15    -0.08   0.11   0.10
    26   1    -0.04   0.15  -0.03    -0.04   0.00   0.15     0.01   0.12  -0.11
    27   1    -0.07   0.21  -0.04     0.28   0.22   0.01    -0.05  -0.06  -0.03
    28   1    -0.27   0.13  -0.15     0.10   0.00  -0.21    -0.06  -0.03  -0.00
    29   1     0.03   0.31   0.00     0.08   0.02  -0.13    -0.03  -0.02  -0.02
                     16                     17                     18
                      A                      A                      A
 Frequencies --    466.0126               484.4906               556.5949
 Red. masses --      3.1489                 3.1205                 3.2607
 Frc consts  --      0.4029                 0.4316                 0.5952
 IR Inten    --      0.8432                 1.2271                15.4498
  Atom  AN      X      Y      Z        X      Y      Z        X      Y      Z
     1   6     0.00   0.25   0.06     0.14  -0.00   0.00     0.02   0.00   0.00
     2   6     0.11   0.07   0.01     0.10  -0.06   0.06    -0.05   0.16  -0.09
     3   6     0.09   0.01  -0.03    -0.12  -0.08  -0.00    -0.11   0.12   0.03
     4   7    -0.00  -0.11  -0.02    -0.11   0.00  -0.00    -0.06   0.00  -0.00
     5   6    -0.09   0.01  -0.03    -0.12   0.08   0.00    -0.11  -0.12  -0.03
     6   6    -0.11   0.07   0.01     0.10   0.06  -0.06    -0.05  -0.16   0.09
     7   6     0.04  -0.03  -0.08     0.04  -0.03  -0.06    -0.01   0.02  -0.08
     8   6    -0.04  -0.02   0.09    -0.09   0.10   0.13     0.02  -0.01   0.00
     9   8    -0.00  -0.13  -0.00     0.05  -0.00   0.00     0.20  -0.00   0.00
    10   6    -0.04  -0.03  -0.08     0.04   0.03   0.06    -0.01  -0.02   0.08
    11   6     0.04  -0.02   0.09    -0.09  -0.10  -0.13     0.02   0.01  -0.00
    12   1     0.00   0.18  -0.13    -0.00  -0.00   0.00     0.27  -0.00  -0.00
    13   1     0.00   0.40   0.05     0.25  -0.00   0.00    -0.09   0.00  -0.00
    14   1    -0.01  -0.04  -0.13     0.14   0.04   0.02    -0.03   0.25  -0.18
    15   1     0.25   0.06   0.01     0.12  -0.06   0.06     0.04   0.08  -0.09
    16   1    -0.25   0.06   0.01     0.12   0.06  -0.06     0.04  -0.08   0.09
    17   1     0.01  -0.04  -0.13     0.14  -0.04  -0.02    -0.03  -0.25   0.18
    18   1     0.04  -0.04  -0.12     0.10  -0.08  -0.20     0.09   0.08   0.12
    19   1     0.07  -0.09  -0.22     0.07  -0.06  -0.22    -0.02   0.11  -0.26
    20   1     0.15  -0.02   0.02     0.17  -0.11   0.15     0.04   0.12  -0.12
    21   1     0.07  -0.14   0.06     0.04   0.07   0.09     0.18   0.06  -0.05
    22   1    -0.03  -0.05   0.14    -0.12   0.15   0.23    -0.06   0.13   0.18
    23   1    -0.11   0.02   0.22    -0.08   0.12   0.17     0.13  -0.01  -0.07
    24   1    -0.07  -0.09  -0.22     0.07   0.06   0.22    -0.02  -0.11   0.26
    25   1    -0.04  -0.04  -0.12     0.10   0.08   0.20     0.09  -0.08  -0.12
    26   1    -0.15  -0.02   0.02     0.17   0.11  -0.15     0.04  -0.12   0.12
    27   1    -0.07  -0.14   0.06     0.04  -0.07  -0.09     0.18  -0.06   0.05
    28   1     0.11   0.02   0.22    -0.08  -0.12  -0.17     0.13   0.01   0.07
    29   1     0.03  -0.05   0.14    -0.12  -0.15  -0.23    -0.06  -0.13  -0.18
                     19                     20                     21
                      A                      A                      A
 Frequencies --    578.2190               591.9256               660.4400
 Red. masses --      4.1399                 2.0580                 3.3709
 Frc consts  --      0.8155                 0.4248                 0.8663
 IR Inten    --     10.1812                 0.8390                 3.7777
  Atom  AN      X      Y      Z        X      Y      Z        X      Y      Z
     1   6     0.00   0.07   0.01     0.00   0.11   0.07    -0.00  -0.06   0.04
     2   6    -0.03   0.10  -0.04     0.04  -0.02   0.04     0.06  -0.13   0.09
     3   6    -0.07   0.02  -0.06    -0.09  -0.03   0.01     0.07  -0.04  -0.04
     4   7    -0.00  -0.04   0.39     0.00   0.04  -0.06     0.00   0.13   0.16
     5   6     0.07   0.02  -0.06     0.09  -0.03   0.01    -0.07  -0.04  -0.04
     6   6     0.03   0.10  -0.04    -0.04  -0.02   0.04    -0.06  -0.13   0.09
     7   6    -0.07  -0.02  -0.04     0.01   0.00   0.06    -0.05   0.00  -0.14
     8   6     0.10  -0.06  -0.05     0.09  -0.07  -0.08    -0.01   0.01   0.02
     9   8     0.00  -0.08  -0.05    -0.00   0.05   0.01     0.00   0.16  -0.01
    10   6     0.07  -0.02  -0.04    -0.01   0.00   0.06     0.05   0.00  -0.14
    11   6    -0.10  -0.06  -0.05    -0.09  -0.07  -0.08     0.01   0.01   0.02
    12   1     0.00   0.12   0.15     0.00  -0.02  -0.27     0.00  -0.22  -0.38
    13   1    -0.00  -0.06   0.02     0.00   0.45   0.05     0.00   0.36   0.01
    14   1    -0.01   0.09   0.03    -0.05   0.03  -0.27     0.02  -0.18   0.04
    15   1    -0.07   0.19  -0.04     0.32  -0.13   0.04     0.12  -0.10   0.09
    16   1     0.07   0.19  -0.04    -0.32  -0.13   0.04    -0.12  -0.10   0.09
    17   1     0.01   0.09   0.03     0.05   0.03  -0.27    -0.02  -0.18   0.04
    18   1    -0.22  -0.04  -0.15    -0.01   0.03   0.13    -0.04   0.02  -0.09
    19   1    -0.09  -0.06   0.26    -0.01   0.04   0.13    -0.06   0.04  -0.19
    20   1    -0.23  -0.07  -0.15    -0.06   0.04  -0.05    -0.06   0.04  -0.19
    21   1     0.17  -0.10  -0.08     0.03  -0.06  -0.06     0.15   0.00  -0.03
    22   1     0.11  -0.07  -0.02     0.11  -0.10  -0.14    -0.08   0.13   0.18
    23   1     0.07  -0.04   0.01     0.08  -0.08  -0.09     0.07   0.03   0.04
    24   1     0.09  -0.06   0.26     0.01   0.04   0.13     0.06   0.04  -0.19
    25   1     0.22  -0.04  -0.15     0.01   0.03   0.13     0.04   0.02  -0.09
    26   1     0.23  -0.07  -0.15     0.06   0.04  -0.05     0.06   0.04  -0.19
    27   1    -0.17  -0.10  -0.08    -0.03  -0.06  -0.06    -0.15   0.00  -0.03
    28   1    -0.07  -0.04   0.01    -0.08  -0.08  -0.09    -0.07   0.03   0.04
    29   1    -0.11  -0.07  -0.02    -0.11  -0.10  -0.14     0.08   0.13   0.18
                     22                     23                     24
                      A                      A                      A
 Frequencies --    812.5643               826.7220               880.8683
 Red. masses --      2.4894                 2.1160                 1.4921
 Frc consts  --      0.9684                 0.8521                 0.6821
 IR Inten    --      0.5546                 3.6223                 2.0903
  Atom  AN      X      Y      Z        X      Y      Z        X      Y      Z
     1   6     0.04   0.00   0.00     0.00   0.14  -0.02    -0.00  -0.00  -0.00
     2   6    -0.01   0.07  -0.11     0.02   0.02  -0.05     0.06  -0.08  -0.07
     3   6     0.09  -0.05  -0.02     0.11  -0.09  -0.01    -0.02   0.01  -0.02
     4   7     0.10  -0.00   0.00    -0.00   0.05   0.02    -0.07   0.00  -0.00
     5   6     0.09   0.05   0.02    -0.11  -0.09  -0.01    -0.02  -0.01   0.02
     6   6    -0.01  -0.07   0.11    -0.02   0.02  -0.05     0.06   0.08   0.07
     7   6    -0.02   0.02  -0.14    -0.01  -0.03   0.07    -0.02  -0.02  -0.01
     8   6    -0.05   0.07   0.06     0.02  -0.06  -0.04     0.02  -0.03  -0.02
     9   8    -0.04   0.00  -0.00     0.00   0.08   0.00     0.01   0.00   0.00
    10   6    -0.02  -0.02   0.14     0.01  -0.03   0.07    -0.02   0.02   0.01
    11   6    -0.05  -0.07  -0.06    -0.02  -0.06  -0.04     0.02   0.03   0.02
    12   1     0.29   0.00   0.00    -0.00   0.27   0.34    -0.13   0.00  -0.00
    13   1    -0.19  -0.00  -0.00    -0.00  -0.26   0.01    -0.31   0.00  -0.00
    14   1     0.06   0.04   0.14    -0.02  -0.14   0.09     0.21  -0.10   0.38
    15   1    -0.21   0.19  -0.10    -0.13   0.06  -0.05    -0.36   0.13  -0.07
    16   1    -0.21  -0.19   0.10     0.13   0.06  -0.05    -0.36  -0.13   0.07
    17   1     0.06  -0.04  -0.14     0.02  -0.14   0.09     0.21   0.10  -0.38
    18   1    -0.11   0.00  -0.22     0.11   0.02   0.24     0.06   0.02   0.12
    19   1    -0.02  -0.02  -0.01    -0.01   0.06  -0.13    -0.03   0.05  -0.13
    20   1    -0.10  -0.00  -0.21     0.08   0.05   0.08     0.03   0.06  -0.04
    21   1    -0.19   0.01   0.12     0.19   0.01  -0.10     0.08  -0.02  -0.04
    22   1     0.04  -0.09  -0.07    -0.10   0.14   0.13    -0.01   0.03   0.03
    23   1    -0.22   0.07   0.14     0.23  -0.06  -0.13     0.09  -0.03  -0.04
    24   1    -0.02   0.02   0.01     0.01   0.06  -0.13    -0.03  -0.05   0.13
    25   1    -0.11  -0.00   0.22    -0.11   0.02   0.24     0.06  -0.02  -0.12
    26   1    -0.10   0.00   0.21    -0.08   0.05   0.08     0.03  -0.06   0.04
    27   1    -0.19  -0.01  -0.12    -0.19   0.01  -0.10     0.08   0.02   0.04
    28   1    -0.22  -0.07  -0.14    -0.23  -0.06  -0.13     0.09   0.03   0.04
    29   1     0.04   0.09   0.07     0.10   0.14   0.13    -0.01  -0.03  -0.03
                     25                     26                     27
                      A                      A                      A
 Frequencies --    906.9285               948.3619               957.7343
 Red. masses --      2.2684                 1.8856                 1.5774
 Frc consts  --      1.0993                 0.9992                 0.8525
 IR Inten    --      0.3051                 0.0673                 2.0872
  Atom  AN      X      Y      Z        X      Y      Z        X      Y      Z
     1   6     0.00   0.09   0.04     0.07  -0.00   0.00     0.00  -0.03   0.04
     2   6    -0.18   0.02  -0.00    -0.03   0.04  -0.06    -0.04   0.02  -0.02
     3   6    -0.04  -0.05   0.05    -0.05  -0.09   0.02    -0.01  -0.02  -0.07
     4   7    -0.00  -0.00   0.00    -0.07   0.00  -0.00    -0.00  -0.00  -0.01
     5   6     0.04  -0.05   0.05    -0.05   0.09  -0.02     0.01  -0.02  -0.07
     6   6     0.18   0.02  -0.00    -0.03  -0.04   0.06     0.04   0.02  -0.02
     7   6    -0.02  -0.02  -0.09    -0.02   0.06   0.06     0.07  -0.03   0.05
     8   6    -0.03   0.00   0.06     0.07   0.00  -0.08    -0.09   0.03  -0.01
     9   8    -0.00  -0.01   0.00    -0.00  -0.00  -0.00     0.00  -0.01   0.00
    10   6     0.02  -0.02  -0.09    -0.02  -0.06  -0.06    -0.07  -0.03   0.05
    11   6     0.03   0.00   0.06     0.07  -0.00   0.08     0.09   0.02  -0.01
    12   1    -0.00   0.14   0.16     0.28  -0.00   0.00     0.00  -0.10  -0.14
    13   1    -0.00   0.02   0.05    -0.04   0.00  -0.00    -0.00   0.18   0.03
    14   1    -0.30  -0.00  -0.30     0.04   0.12   0.00    -0.06   0.01  -0.06
    15   1     0.04  -0.21  -0.01    -0.11   0.01  -0.06     0.04   0.10  -0.02
    16   1    -0.04  -0.21  -0.01    -0.11  -0.01   0.06    -0.04   0.10  -0.02
    17   1     0.30  -0.00  -0.30     0.04  -0.12  -0.00     0.06   0.01  -0.06
    18   1     0.02   0.03   0.08    -0.01  -0.04  -0.25    -0.05   0.03   0.21
    19   1    -0.05   0.06  -0.15     0.04  -0.10   0.01     0.01   0.05   0.31
    20   1    -0.04   0.08  -0.20     0.11  -0.11   0.35    -0.13   0.03  -0.21
    21   1    -0.13   0.18   0.08     0.11  -0.19  -0.08     0.22  -0.10  -0.10
    22   1    -0.09   0.11   0.02     0.18  -0.19  -0.11    -0.16   0.14   0.25
    23   1     0.12  -0.04  -0.14    -0.14   0.04   0.12    -0.01   0.11   0.18
    24   1     0.05   0.06  -0.15     0.04   0.10  -0.01    -0.01   0.05   0.31
    25   1    -0.02   0.03   0.08    -0.01   0.04   0.25     0.05   0.03   0.21
    26   1     0.04   0.08  -0.20     0.11   0.11  -0.35     0.13   0.03  -0.21
    27   1     0.13   0.18   0.08     0.11   0.19   0.08    -0.22  -0.10  -0.10
    28   1    -0.12  -0.04  -0.14    -0.14  -0.04  -0.12     0.01   0.11   0.18
    29   1     0.09   0.11   0.02     0.18   0.19   0.11     0.16   0.14   0.25
                     28                     29                     30
                      A                      A                      A
 Frequencies --    958.0616               983.3681              1003.3890
 Red. masses --      1.4372                 1.5447                 1.6521
 Frc consts  --      0.7772                 0.8801                 0.9800
 IR Inten    --      1.5582                 8.9139                12.2130
  Atom  AN      X      Y      Z        X      Y      Z        X      Y      Z
     1   6    -0.02  -0.00   0.00    -0.00  -0.08   0.09    -0.00  -0.10  -0.04
     2   6     0.01  -0.00   0.02    -0.07   0.03  -0.04     0.07   0.10   0.01
     3   6    -0.01   0.00  -0.07     0.05   0.02  -0.02    -0.02  -0.03   0.03
     4   7     0.01  -0.00  -0.00    -0.00  -0.00   0.01     0.00   0.00   0.00
     5   6    -0.01  -0.00   0.07    -0.05   0.02  -0.02     0.02  -0.03   0.03
     6   6     0.01   0.00  -0.02     0.07   0.03  -0.04    -0.07   0.10   0.01
     7   6    -0.07   0.02  -0.05    -0.03   0.05   0.05    -0.02  -0.05  -0.02
     8   6     0.06  -0.04   0.03    -0.00  -0.05  -0.01    -0.01  -0.04   0.03
     9   8    -0.00  -0.00   0.00    -0.00  -0.02   0.00    -0.00  -0.00   0.00
    10   6    -0.07  -0.02   0.05     0.03   0.05   0.05     0.02  -0.05  -0.02
    11   6     0.06   0.04  -0.03     0.00  -0.05  -0.01     0.01  -0.04   0.03
    12   1    -0.09  -0.00  -0.00    -0.00  -0.22  -0.31    -0.00  -0.13  -0.12
    13   1     0.07   0.00   0.00     0.00   0.34   0.05     0.00   0.01  -0.05
    14   1    -0.03  -0.04  -0.04    -0.09   0.01  -0.07     0.23   0.42  -0.02
    15   1     0.08   0.04   0.02     0.07   0.17  -0.04     0.13   0.10   0.00
    16   1     0.08  -0.04  -0.02    -0.07   0.17  -0.04    -0.13   0.10   0.00
    17   1    -0.03   0.04   0.04     0.09   0.01  -0.07    -0.23   0.42  -0.02
    18   1     0.07  -0.03  -0.17     0.03  -0.05  -0.21     0.07   0.02   0.21
    19   1    -0.02  -0.04  -0.33     0.03  -0.10  -0.11    -0.05   0.08  -0.15
    20   1     0.14  -0.02   0.20     0.13  -0.09   0.34     0.00   0.09  -0.14
    21   1    -0.24   0.19   0.12     0.05   0.08  -0.03    -0.05   0.13   0.04
    22   1     0.08  -0.05  -0.20    -0.09   0.11   0.04    -0.09   0.10   0.03
    23   1     0.11  -0.14  -0.26     0.18  -0.07  -0.14     0.16  -0.08  -0.14
    24   1    -0.02   0.04   0.33    -0.03  -0.10  -0.11     0.05   0.08  -0.15
    25   1     0.07   0.03   0.17    -0.03  -0.05  -0.21    -0.07   0.02   0.21
    26   1     0.14   0.02  -0.20    -0.13  -0.09   0.34    -0.00   0.09  -0.14
    27   1    -0.24  -0.19  -0.12    -0.05   0.08  -0.03     0.05   0.13   0.04
    28   1     0.11   0.14   0.26    -0.18  -0.07  -0.14    -0.16  -0.08  -0.14
    29   1     0.08   0.05   0.20     0.09   0.11   0.04     0.09   0.10   0.03
                     31                     32                     33
                      A                      A                      A
 Frequencies --   1017.3177              1018.6340              1071.9725
 Red. masses --      1.2830                 1.4466                 1.5988
 Frc consts  --      0.7824                 0.8844                 1.0824
 IR Inten    --      0.7062                 2.5185                 2.5602
  Atom  AN      X      Y      Z        X      Y      Z        X      Y      Z
     1   6    -0.01  -0.00  -0.00    -0.00   0.05   0.02    -0.00  -0.01  -0.09
     2   6     0.01   0.01  -0.01     0.05  -0.03  -0.03    -0.01   0.02   0.09
     3   6     0.01  -0.00  -0.00    -0.04  -0.03   0.01     0.01   0.03   0.04
     4   7    -0.02   0.00   0.00    -0.00   0.00  -0.04     0.00  -0.01  -0.03
     5   6     0.01   0.00   0.00     0.04  -0.03   0.01    -0.01   0.03   0.04
     6   6     0.01  -0.01   0.01    -0.05  -0.03  -0.03     0.01   0.02   0.09
     7   6     0.04   0.07  -0.01     0.06   0.04  -0.03     0.00   0.05  -0.02
     8   6    -0.03  -0.06   0.01    -0.02  -0.04   0.06    -0.04  -0.04  -0.06
     9   8     0.00  -0.00  -0.00     0.00   0.02   0.00    -0.00  -0.03   0.00
    10   6     0.04  -0.07   0.01    -0.06   0.04  -0.03    -0.00   0.05  -0.02
    11   6    -0.03   0.06  -0.01     0.02  -0.04   0.06     0.04  -0.04  -0.06
    12   1     0.05  -0.00  -0.00     0.00   0.07   0.04    -0.00   0.08   0.15
    13   1    -0.15   0.00  -0.00    -0.00   0.01   0.02    -0.00  -0.25  -0.07
    14   1     0.02   0.01   0.02     0.08  -0.08   0.14     0.01   0.18  -0.13
    15   1    -0.07  -0.04  -0.01    -0.07   0.12  -0.02     0.10  -0.29   0.09
    16   1    -0.07   0.04   0.01     0.07   0.12  -0.02    -0.10  -0.29   0.09
    17   1     0.02  -0.01  -0.02    -0.08  -0.08   0.14    -0.01   0.18  -0.13
    18   1    -0.16  -0.03  -0.34    -0.16  -0.01  -0.24    -0.08  -0.01  -0.23
    19   1     0.07  -0.12   0.28     0.05  -0.08   0.31     0.03  -0.06   0.08
    20   1    -0.08  -0.12   0.06    -0.13  -0.09  -0.08    -0.02  -0.07   0.08
    21   1     0.05   0.14  -0.02    -0.12   0.21   0.08     0.27  -0.09  -0.15
    22   1    -0.17   0.19   0.12    -0.12   0.15   0.02    -0.12   0.11   0.19
    23   1     0.26  -0.09  -0.17     0.21  -0.10  -0.21     0.15   0.01   0.03
    24   1     0.07   0.12  -0.28    -0.05  -0.08   0.31    -0.03  -0.06   0.08
    25   1    -0.16   0.03   0.34     0.16  -0.01  -0.24     0.08  -0.01  -0.23
    26   1    -0.08   0.12  -0.06     0.13  -0.09  -0.08     0.02  -0.07   0.08
    27   1     0.05  -0.14   0.02     0.12   0.21   0.08    -0.27  -0.09  -0.15
    28   1     0.26   0.09   0.17    -0.21  -0.10  -0.21    -0.15   0.01   0.03
    29   1    -0.17  -0.19  -0.12     0.12   0.15   0.02     0.12   0.11   0.19
                     34                     35                     36
                      A                      A                      A
 Frequencies --   1089.7421              1092.9415              1122.3468
 Red. masses --      1.5328                 2.1435                 1.4013
 Frc consts  --      1.0724                 1.5086                 1.0400
 IR Inten    --      1.4352                 9.0914                 5.1204
  Atom  AN      X      Y      Z        X      Y      Z        X      Y      Z
     1   6     0.11  -0.00   0.00     0.07  -0.00   0.00     0.04  -0.00   0.00
     2   6    -0.07  -0.05  -0.03    -0.04  -0.04  -0.02    -0.02  -0.02   0.01
     3   6     0.02  -0.03  -0.03     0.01   0.01   0.04    -0.01   0.03   0.08
     4   7    -0.09   0.00  -0.00     0.23  -0.00   0.00    -0.03   0.00  -0.00
     5   6     0.02   0.03   0.03     0.01  -0.01  -0.04    -0.01  -0.03  -0.08
     6   6    -0.07   0.05   0.03    -0.04   0.04   0.02    -0.02   0.02  -0.01
     7   6     0.01  -0.02  -0.02    -0.07  -0.00   0.04     0.02  -0.01   0.03
     8   6     0.01  -0.03   0.01    -0.07  -0.03  -0.01     0.03   0.02   0.07
     9   8     0.01  -0.00   0.00    -0.04   0.00  -0.00     0.01  -0.00   0.00
    10   6     0.01   0.02   0.02    -0.07   0.00  -0.04     0.02   0.01  -0.03
    11   6     0.01   0.03  -0.01    -0.07   0.03   0.01     0.03  -0.02  -0.07
    12   1     0.54  -0.00   0.00     0.34  -0.00   0.00     0.23  -0.00   0.00
    13   1     0.41  -0.00   0.00    -0.00  -0.00  -0.00    -0.30   0.00  -0.00
    14   1    -0.24  -0.36  -0.04    -0.02  -0.03   0.01     0.09   0.16   0.02
    15   1    -0.06  -0.03  -0.03    -0.17  -0.21  -0.02    -0.20  -0.39   0.01
    16   1    -0.06   0.03   0.03    -0.17   0.21   0.02    -0.20   0.39  -0.01
    17   1    -0.24   0.36   0.04    -0.02   0.03  -0.01     0.09  -0.16  -0.02
    18   1    -0.01   0.02   0.09     0.13  -0.02   0.01     0.01   0.00   0.09
    19   1    -0.01   0.05   0.04    -0.03  -0.01  -0.29     0.01   0.00   0.09
    20   1    -0.04   0.04  -0.13     0.16   0.01   0.25    -0.01  -0.00  -0.01
    21   1    -0.01   0.05   0.01     0.14   0.00  -0.08    -0.26   0.14   0.15
    22   1    -0.01   0.02  -0.02    -0.18   0.16   0.19     0.07  -0.04  -0.17
    23   1     0.08  -0.05  -0.07     0.11   0.01   0.03    -0.06  -0.05  -0.10
    24   1    -0.01  -0.05  -0.04    -0.03   0.01   0.29     0.01  -0.00  -0.09
    25   1    -0.01  -0.02  -0.09     0.13   0.02  -0.01     0.01  -0.00  -0.09
    26   1    -0.04  -0.04   0.13     0.16  -0.01  -0.25    -0.01   0.00   0.01
    27   1    -0.01  -0.05  -0.01     0.14  -0.00   0.08    -0.26  -0.14  -0.15
    28   1     0.08   0.05   0.07     0.11  -0.01  -0.03    -0.06   0.05   0.10
    29   1    -0.01  -0.02   0.02    -0.18  -0.16  -0.19     0.07   0.04   0.17
                     37                     38                     39
                      A                      A                      A
 Frequencies --   1186.5912              1221.2343              1246.4166
 Red. masses --      2.1206                 2.3402                 3.0464
 Frc consts  --      1.7592                 2.0564                 2.7884
 IR Inten    --     27.0176                11.6359                10.0459
  Atom  AN      X      Y      Z        X      Y      Z        X      Y      Z
     1   6     0.10  -0.00   0.00     0.00  -0.07  -0.10    -0.00  -0.06   0.10
     2   6    -0.07  -0.08  -0.05    -0.03   0.06   0.08    -0.01   0.04  -0.08
     3   6    -0.12   0.03  -0.06     0.15  -0.02  -0.08     0.15   0.07   0.19
     4   7     0.12  -0.00   0.00    -0.00   0.00   0.01     0.00   0.00  -0.04
     5   6    -0.12  -0.03   0.06    -0.15  -0.02  -0.08    -0.15   0.07   0.19
     6   6    -0.07   0.08   0.05     0.03   0.06   0.08     0.01   0.04  -0.08
     7   6     0.04   0.01  -0.03     0.07   0.01   0.01     0.06  -0.03  -0.06
     8   6     0.03  -0.01  -0.01     0.06   0.00   0.05     0.04  -0.01  -0.05
     9   8    -0.01   0.00  -0.00     0.00   0.01  -0.00    -0.00  -0.02   0.00
    10   6     0.04  -0.01   0.03    -0.07   0.01   0.01    -0.06  -0.03  -0.06
    11   6     0.03   0.01   0.01    -0.06   0.00   0.05    -0.04  -0.01  -0.05
    12   1    -0.44   0.00  -0.00    -0.00  -0.03   0.01     0.00  -0.15  -0.13
    13   1     0.50  -0.00   0.00    -0.00  -0.18  -0.10    -0.00   0.24   0.08
    14   1     0.15   0.31  -0.02    -0.19  -0.09  -0.17    -0.00  -0.07   0.11
    15   1    -0.10  -0.01  -0.05     0.27   0.04   0.08    -0.19  -0.12  -0.08
    16   1    -0.10   0.01   0.05    -0.27   0.04   0.08     0.19  -0.12  -0.08
    17   1     0.15  -0.31   0.02     0.19  -0.09  -0.17     0.00  -0.07   0.11
    18   1    -0.13   0.02  -0.02    -0.12   0.03   0.05    -0.18   0.03   0.03
    19   1     0.02   0.00   0.15     0.04  -0.00   0.26    -0.01   0.11   0.14
    20   1    -0.12  -0.04  -0.15    -0.10  -0.07  -0.07    -0.16   0.01  -0.30
    21   1    -0.02  -0.04   0.00    -0.20   0.06   0.12     0.15  -0.15  -0.08
    22   1     0.06  -0.07  -0.06     0.11  -0.07  -0.21     0.12  -0.15  -0.06
    23   1     0.00  -0.04  -0.06    -0.07  -0.09  -0.15     0.08  -0.03  -0.07
    24   1     0.02  -0.00  -0.15    -0.04  -0.00   0.26     0.01   0.11   0.14
    25   1    -0.13  -0.02   0.02     0.12   0.03   0.05     0.18   0.03   0.03
    26   1    -0.12   0.04   0.15     0.10  -0.07  -0.07     0.16   0.01  -0.30
    27   1    -0.02   0.04  -0.00     0.20   0.06   0.12    -0.15  -0.15  -0.08
    28   1     0.00   0.04   0.06     0.07  -0.09  -0.15    -0.08  -0.03  -0.07
    29   1     0.06   0.07   0.06    -0.11  -0.07  -0.21    -0.12  -0.15  -0.06
                     40                     41                     42
                      A                      A                      A
 Frequencies --   1257.0744              1275.3410              1291.0236
 Red. masses --      2.0191                 1.9673                 2.6138
 Frc consts  --      1.8798                 1.8852                 2.5668
 IR Inten    --      4.5997                 4.8160                40.1632
  Atom  AN      X      Y      Z        X      Y      Z        X      Y      Z
     1   6     0.01  -0.00   0.00    -0.02   0.00  -0.00    -0.00  -0.00  -0.00
     2   6     0.02  -0.02  -0.04    -0.03   0.02  -0.08     0.03  -0.04   0.03
     3   6     0.02   0.17   0.06     0.05  -0.09   0.15    -0.02   0.22  -0.08
     4   7    -0.03   0.00  -0.00    -0.03   0.00  -0.00     0.00   0.01   0.01
     5   6     0.02  -0.17  -0.06     0.05   0.09  -0.15     0.02   0.22  -0.08
     6   6     0.02   0.02   0.04    -0.03  -0.02   0.08    -0.03  -0.04   0.03
     7   6    -0.01   0.07   0.01    -0.01  -0.02   0.03    -0.00  -0.07   0.02
     8   6    -0.00   0.05   0.01    -0.01  -0.03   0.05    -0.01  -0.07   0.03
     9   8     0.02  -0.00   0.00    -0.01   0.00  -0.00    -0.00  -0.07   0.00
    10   6    -0.01  -0.07  -0.01    -0.01   0.02  -0.03     0.00  -0.07   0.02
    11   6    -0.00  -0.05  -0.01    -0.01   0.03  -0.05     0.01  -0.07   0.03
    12   1    -0.28   0.00  -0.00    -0.31   0.00  -0.00    -0.00  -0.02  -0.02
    13   1     0.40  -0.00   0.00     0.52  -0.00   0.00     0.00  -0.07  -0.00
    14   1    -0.12  -0.33   0.07     0.09   0.17   0.03    -0.10  -0.28   0.03
    15   1    -0.09   0.04  -0.04     0.04   0.30  -0.07    -0.08  -0.20   0.03
    16   1    -0.09  -0.04   0.04     0.04  -0.30   0.07     0.08  -0.20   0.03
    17   1    -0.12   0.33  -0.07     0.09  -0.17  -0.03     0.10  -0.28   0.03
    18   1    -0.00  -0.00  -0.17     0.09   0.01   0.15     0.06   0.01   0.24
    19   1     0.06  -0.15   0.03    -0.02   0.03   0.04    -0.07   0.16  -0.01
    20   1     0.01  -0.12   0.21     0.10   0.04   0.09     0.09   0.13  -0.08
    21   1    -0.12  -0.06   0.05    -0.07   0.19   0.06     0.07   0.20  -0.01
    22   1     0.03  -0.01   0.03    -0.09   0.12  -0.05    -0.10   0.12  -0.08
    23   1    -0.20   0.06   0.11     0.07  -0.06  -0.09     0.22  -0.10  -0.15
    24   1     0.06   0.15  -0.03    -0.02  -0.03  -0.04     0.07   0.16  -0.01
    25   1    -0.00   0.00   0.17     0.09  -0.01  -0.15    -0.06   0.01   0.24
    26   1     0.01   0.12  -0.21     0.10  -0.04  -0.09    -0.09   0.13  -0.08
    27   1    -0.12   0.06  -0.05    -0.07  -0.19  -0.06    -0.07   0.20  -0.01
    28   1    -0.20  -0.06  -0.11     0.07   0.06   0.09    -0.22  -0.10  -0.15
    29   1     0.03   0.01  -0.03    -0.09  -0.12   0.05     0.10   0.12  -0.08
                     43                     44                     45
                      A                      A                      A
 Frequencies --   1314.0392              1338.0678              1385.0503
 Red. masses --      2.0622                 1.3003                 1.5114
 Frc consts  --      2.0980                 1.3717                 1.7083
 IR Inten    --     28.4780                 3.0038                 0.4554
  Atom  AN      X      Y      Z        X      Y      Z        X      Y      Z
     1   6     0.08  -0.00   0.00     0.00  -0.03  -0.08    -0.15   0.00  -0.00
     2   6    -0.06   0.01  -0.00     0.02   0.02   0.01    -0.00  -0.08   0.01
     3   6     0.15   0.01  -0.07    -0.05   0.01   0.07     0.03   0.05  -0.02
     4   7    -0.13   0.00  -0.00    -0.00  -0.00  -0.01    -0.03   0.00  -0.00
     5   6     0.15  -0.01   0.07     0.05   0.01   0.07     0.03  -0.05   0.02
     6   6    -0.06  -0.01   0.00    -0.02   0.02   0.01    -0.00   0.08  -0.01
     7   6    -0.04   0.00  -0.01    -0.01  -0.01  -0.01    -0.01   0.02  -0.03
     8   6    -0.03   0.00  -0.02    -0.02  -0.00  -0.02    -0.01   0.02  -0.00
     9   8     0.02  -0.00   0.00     0.00   0.00  -0.00     0.01   0.00   0.00
    10   6    -0.04  -0.00   0.01     0.01  -0.01  -0.01    -0.01  -0.02   0.03
    11   6    -0.03  -0.00   0.02     0.02  -0.00  -0.02    -0.01  -0.02   0.00
    12   1    -0.43   0.00  -0.00    -0.00  -0.02  -0.03     0.63  -0.00   0.00
    13   1     0.12  -0.00   0.00    -0.00  -0.15  -0.07     0.33  -0.00   0.00
    14   1     0.09   0.32  -0.06    -0.23  -0.38  -0.04     0.24   0.30   0.09
    15   1    -0.14  -0.37  -0.01     0.23   0.43   0.02     0.10   0.07   0.01
    16   1    -0.14   0.37   0.01    -0.23   0.43   0.02     0.10  -0.07  -0.01
    17   1     0.09  -0.32   0.06     0.23  -0.38  -0.04     0.24  -0.30  -0.09
    18   1     0.10  -0.03  -0.07     0.02  -0.02  -0.04     0.08   0.04   0.06
    19   1    -0.01  -0.03  -0.13    -0.02   0.02  -0.08     0.01  -0.10   0.09
    20   1     0.04   0.06   0.00    -0.00   0.05  -0.06     0.03  -0.06   0.09
    21   1     0.06   0.02  -0.04     0.06  -0.01  -0.04     0.00  -0.05  -0.00
    22   1    -0.03  -0.01   0.12     0.01  -0.05   0.06     0.04  -0.08   0.04
    23   1     0.06   0.07   0.13     0.09   0.04   0.06     0.04   0.03   0.01
    24   1    -0.01   0.03   0.13     0.02   0.02  -0.08     0.01   0.10  -0.09
    25   1     0.10   0.03   0.07    -0.02  -0.02  -0.04     0.08  -0.04  -0.06
    26   1     0.04  -0.06  -0.00     0.00   0.05  -0.06     0.03   0.06  -0.09
    27   1     0.06  -0.02   0.04    -0.06  -0.01  -0.04     0.00   0.05   0.00
    28   1     0.06  -0.07  -0.13    -0.09   0.04   0.06     0.04  -0.03  -0.01
    29   1    -0.03   0.01  -0.12    -0.01  -0.05   0.06     0.04   0.08  -0.04
                     46                     47                     48
                      A                      A                      A
 Frequencies --   1395.6340              1396.7286              1407.9511
 Red. masses --      1.2935                 1.3122                 1.4203
 Frc consts  --      1.4844                 1.5082                 1.6589
 IR Inten    --      0.0238                27.0316                16.6632
  Atom  AN      X      Y      Z        X      Y      Z        X      Y      Z
     1   6     0.04  -0.00   0.00     0.00  -0.02   0.01     0.00   0.02  -0.01
     2   6    -0.01  -0.00   0.01     0.02   0.05  -0.01    -0.02  -0.05  -0.00
     3   6    -0.01  -0.01  -0.02    -0.01  -0.01   0.02     0.03   0.03   0.02
     4   7     0.00  -0.00   0.00    -0.00  -0.01  -0.00     0.00   0.04  -0.01
     5   6    -0.01   0.01   0.02     0.01  -0.01   0.02    -0.03   0.03   0.02
     6   6    -0.01   0.00  -0.01    -0.02   0.05  -0.01     0.02  -0.05  -0.00
     7   6    -0.02   0.00  -0.08    -0.03   0.02  -0.08     0.02  -0.02   0.01
     8   6     0.04  -0.03  -0.04     0.02  -0.02  -0.03     0.07  -0.05  -0.05
     9   8    -0.00   0.00  -0.00     0.00   0.01  -0.00    -0.00  -0.04   0.00
    10   6    -0.02  -0.00   0.08     0.03   0.02  -0.08    -0.02  -0.02   0.01
    11   6     0.04   0.03   0.04    -0.02  -0.02  -0.03    -0.07  -0.05  -0.05
    12   1    -0.07  -0.00  -0.00    -0.00  -0.07  -0.10    -0.00   0.03   0.03
    13   1    -0.20  -0.00  -0.00    -0.00  -0.03   0.01    -0.00  -0.02  -0.00
    14   1    -0.04  -0.01  -0.05    -0.09  -0.17   0.03     0.06   0.12  -0.02
    15   1     0.01   0.03   0.01    -0.06  -0.13  -0.01     0.07   0.18   0.00
    16   1     0.01  -0.03  -0.01     0.05  -0.13  -0.01    -0.07   0.18   0.00
    17   1    -0.04   0.01   0.05     0.09  -0.17   0.03    -0.06   0.12  -0.02
    18   1     0.13   0.11   0.28     0.18   0.12   0.29    -0.11  -0.02  -0.05
    19   1    -0.04  -0.09   0.33    -0.01  -0.17   0.31    -0.02   0.12  -0.06
    20   1     0.17  -0.10   0.22     0.14  -0.13   0.23    -0.01   0.03  -0.06
    21   1    -0.18   0.08   0.03    -0.14   0.05   0.03    -0.27   0.15   0.05
    22   1    -0.08   0.17   0.15    -0.06   0.11   0.14    -0.14   0.31   0.20
    23   1    -0.14   0.01   0.15    -0.09   0.02   0.12    -0.27   0.01   0.24
    24   1    -0.04   0.09  -0.33     0.01  -0.17   0.31     0.02   0.12  -0.06
    25   1     0.13  -0.11  -0.28    -0.18   0.12   0.29     0.11  -0.02  -0.05
    26   1     0.17   0.10  -0.22    -0.14  -0.13   0.23     0.01   0.03  -0.06
    27   1    -0.18  -0.08  -0.03     0.14   0.05   0.03     0.27   0.15   0.05
    28   1    -0.14  -0.01  -0.15     0.09   0.02   0.12     0.27   0.01   0.24
    29   1    -0.08  -0.17  -0.15     0.06   0.11   0.14     0.14   0.31   0.20
                     49                     50                     51
                      A                      A                      A
 Frequencies --   1411.6657              1419.6326              1421.6961
 Red. masses --      1.2820                 1.5855                 1.4955
 Frc consts  --      1.5052                 1.8826                 1.7810
 IR Inten    --     17.0335                 0.0513                 6.6664
  Atom  AN      X      Y      Z        X      Y      Z        X      Y      Z
     1   6    -0.06   0.00  -0.00    -0.12   0.00  -0.00    -0.00  -0.06   0.01
     2   6     0.02   0.01  -0.00     0.08   0.09  -0.01     0.05   0.10  -0.00
     3   6    -0.01  -0.01  -0.01    -0.03  -0.04  -0.03    -0.03  -0.04  -0.02
     4   7    -0.00   0.00  -0.00     0.02  -0.00   0.00     0.00   0.01   0.00
     5   6    -0.01   0.01   0.01    -0.03   0.04   0.03     0.03  -0.04  -0.02
     6   6     0.02  -0.01   0.00     0.08  -0.09   0.01    -0.05   0.10  -0.00
     7   6     0.02  -0.01   0.04    -0.00  -0.01  -0.04     0.01   0.01   0.06
     8   6     0.06  -0.04  -0.05    -0.01   0.00  -0.00     0.02  -0.01  -0.01
     9   8    -0.00  -0.00   0.00    -0.01   0.00  -0.00    -0.00   0.00   0.00
    10   6     0.02   0.01  -0.04    -0.00   0.01   0.04    -0.01   0.01   0.06
    11   6     0.06   0.04   0.05    -0.01  -0.00   0.00    -0.02  -0.01  -0.01
    12   1     0.13   0.00   0.00    -0.03   0.00   0.00    -0.00  -0.07  -0.01
    13   1     0.20  -0.00   0.00     0.50  -0.00   0.00     0.00   0.10  -0.00
    14   1     0.06   0.03   0.06    -0.03  -0.11  -0.02    -0.15  -0.28   0.02
    15   1    -0.01  -0.09  -0.00    -0.33  -0.38  -0.02    -0.17  -0.34  -0.01
    16   1    -0.01   0.09   0.00    -0.33   0.38   0.02     0.17  -0.34  -0.01
    17   1     0.06  -0.03  -0.06    -0.03   0.11   0.02     0.15  -0.28   0.02
    18   1    -0.13  -0.06  -0.15    -0.03   0.05   0.14    -0.06  -0.09  -0.24
    19   1     0.00   0.11  -0.19    -0.04   0.06   0.12     0.03   0.03  -0.23
    20   1    -0.09   0.05  -0.13     0.08  -0.04   0.08    -0.12   0.08  -0.14
    21   1    -0.26   0.13   0.05     0.08   0.01  -0.03    -0.13   0.01   0.04
    22   1    -0.13   0.28   0.19     0.04  -0.08  -0.06    -0.06   0.12   0.11
    23   1    -0.24   0.01   0.22     0.08   0.01  -0.00    -0.11  -0.00   0.05
    24   1     0.00  -0.11   0.19    -0.04  -0.06  -0.12    -0.03   0.03  -0.23
    25   1    -0.13   0.06   0.15    -0.03  -0.05  -0.14     0.06  -0.09  -0.24
    26   1    -0.09  -0.05   0.13     0.08   0.04  -0.08     0.12   0.08  -0.14
    27   1    -0.26  -0.13  -0.05     0.08  -0.01   0.03     0.13   0.01   0.04
    28   1    -0.24  -0.01  -0.22     0.08  -0.01   0.00     0.11  -0.00   0.05
    29   1    -0.13  -0.28  -0.19     0.04   0.08   0.06     0.06   0.12   0.11
                     52                     53                     54
                      A                      A                      A
 Frequencies --   1461.6013              1466.8226              1468.8756
 Red. masses --      1.0551                 1.0577                 1.0734
 Frc consts  --      1.3280                 1.3408                 1.3645
 IR Inten    --      2.0119                 2.1021                 1.3863
  Atom  AN      X      Y      Z        X      Y      Z        X      Y      Z
     1   6    -0.01   0.00   0.00     0.00   0.02   0.02    -0.01  -0.00  -0.00
     2   6     0.02  -0.01   0.02     0.01  -0.00   0.01     0.03  -0.02   0.03
     3   6     0.00  -0.01  -0.01     0.00  -0.00  -0.02     0.00  -0.00   0.00
     4   7    -0.00  -0.00   0.00     0.00  -0.00   0.00    -0.00   0.00   0.00
     5   6     0.00   0.01   0.01    -0.00  -0.00  -0.02     0.00   0.00  -0.00
     6   6     0.02   0.01  -0.02    -0.01  -0.00   0.01     0.03   0.02  -0.03
     7   6    -0.00   0.03   0.01     0.01  -0.01  -0.00    -0.02  -0.01   0.01
     8   6     0.00  -0.02   0.01    -0.01   0.02  -0.02     0.01   0.01  -0.00
     9   8     0.00   0.00  -0.00     0.00   0.00  -0.00     0.00  -0.00   0.00
    10   6    -0.00  -0.03  -0.01    -0.01  -0.01  -0.00    -0.02   0.01  -0.01
    11   6     0.00   0.02  -0.01     0.01   0.02  -0.02     0.01  -0.01   0.00
    12   1     0.03  -0.00  -0.00    -0.00  -0.07  -0.22     0.04   0.00   0.00
    13   1     0.01  -0.00   0.00    -0.00  -0.22   0.03     0.02   0.00  -0.00
    14   1    -0.02   0.04  -0.17    -0.02   0.04  -0.14    -0.06   0.07  -0.36
    15   1    -0.16   0.07   0.01    -0.15   0.02   0.01    -0.33   0.19   0.02
    16   1    -0.16  -0.07  -0.01     0.15   0.02   0.01    -0.33  -0.19  -0.02
    17   1    -0.02  -0.04   0.17     0.02   0.04  -0.14    -0.06  -0.07   0.36
    18   1     0.14   0.05   0.11    -0.17  -0.00  -0.02     0.17  -0.08  -0.16
    19   1     0.11  -0.30  -0.12    -0.06   0.21   0.02    -0.02  -0.00   0.10
    20   1    -0.24  -0.13  -0.08     0.12   0.01   0.08     0.09   0.21  -0.10
    21   1     0.21   0.14  -0.06    -0.26  -0.10   0.07    -0.10  -0.17   0.04
    22   1    -0.08   0.16  -0.27     0.10  -0.21   0.32    -0.00   0.02   0.14
    23   1    -0.17  -0.02   0.08     0.24   0.04  -0.04    -0.02  -0.04  -0.13
    24   1     0.11   0.30   0.12     0.06   0.21   0.02    -0.02   0.00  -0.10
    25   1     0.14  -0.05  -0.11     0.17  -0.00  -0.02     0.17   0.08   0.16
    26   1    -0.24   0.13   0.08    -0.12   0.01   0.08     0.09  -0.21   0.10
    27   1     0.21  -0.14   0.06     0.26  -0.10   0.07    -0.10   0.17  -0.04
    28   1    -0.17   0.02  -0.08    -0.24   0.04  -0.04    -0.02   0.04   0.13
    29   1    -0.08  -0.16   0.27    -0.10  -0.21   0.32    -0.00  -0.02  -0.14
                     55                     56                     57
                      A                      A                      A
 Frequencies --   1471.9177              1476.8128              1480.4778
 Red. masses --      1.0677                 1.0552                 1.0644
 Frc consts  --      1.3629                 1.3559                 1.3745
 IR Inten    --      7.4511                 0.0793                 9.9572
  Atom  AN      X      Y      Z        X      Y      Z        X      Y      Z
     1   6     0.00  -0.03  -0.03     0.01  -0.00  -0.00     0.00  -0.02  -0.02
     2   6    -0.02  -0.01  -0.01     0.01  -0.01   0.01    -0.01   0.00  -0.01
     3   6     0.01   0.02  -0.01    -0.00  -0.00   0.02     0.01   0.00  -0.01
     4   7     0.00   0.01  -0.00    -0.00   0.00   0.00    -0.00  -0.02   0.00
     5   6    -0.01   0.02  -0.01    -0.00   0.00  -0.02    -0.01   0.00  -0.01
     6   6     0.02  -0.01  -0.01     0.01   0.01  -0.01     0.01   0.00  -0.01
     7   6    -0.02  -0.01   0.01     0.02   0.01   0.00     0.01   0.01   0.01
     8   6     0.01   0.02  -0.01    -0.01  -0.00  -0.02    -0.01  -0.02  -0.02
     9   8    -0.00  -0.01   0.00     0.00  -0.00   0.00     0.00   0.02  -0.00
    10   6     0.02  -0.01   0.01     0.02  -0.01  -0.00    -0.01   0.01   0.01
    11   6    -0.01   0.02  -0.01    -0.01   0.00   0.02     0.01  -0.02  -0.02
    12   1    -0.00   0.12   0.35     0.01   0.00   0.00     0.00   0.08   0.25
    13   1     0.00   0.34  -0.05    -0.05   0.00  -0.00    -0.00   0.27  -0.03
    14   1     0.04  -0.01   0.16    -0.04   0.03  -0.18     0.03   0.00   0.09
    15   1     0.17  -0.04  -0.01    -0.14   0.14   0.01     0.08  -0.07  -0.01
    16   1    -0.17  -0.04  -0.01    -0.14  -0.14  -0.01    -0.08  -0.07  -0.01
    17   1    -0.04  -0.01   0.16    -0.04  -0.03   0.18    -0.03   0.00   0.09
    18   1     0.24  -0.06  -0.11    -0.15   0.06   0.12    -0.05   0.03   0.07
    19   1    -0.01  -0.06   0.15     0.04  -0.01  -0.15     0.04  -0.05  -0.09
    20   1     0.10   0.21  -0.09    -0.13  -0.19   0.05    -0.11  -0.12   0.01
    21   1    -0.17  -0.19   0.06    -0.18   0.18   0.03    -0.09   0.33  -0.01
    22   1     0.03  -0.05   0.23     0.11  -0.24   0.17     0.10  -0.22   0.03
    23   1     0.07  -0.03  -0.14     0.29   0.11   0.19     0.26   0.14   0.31
    24   1     0.01  -0.06   0.15     0.04   0.01   0.15    -0.04  -0.05  -0.09
    25   1    -0.24  -0.06  -0.11    -0.15  -0.06  -0.12     0.05   0.03   0.07
    26   1    -0.10   0.21  -0.09    -0.13   0.19  -0.05     0.11  -0.12   0.01
    27   1     0.17  -0.19   0.06    -0.18  -0.18  -0.03     0.09   0.33  -0.01
    28   1    -0.07  -0.03  -0.14     0.29  -0.11  -0.19    -0.26   0.14   0.31
    29   1    -0.03  -0.05   0.23     0.11   0.24  -0.17    -0.10  -0.22   0.03
                     58                     59                     60
                      A                      A                      A
 Frequencies --   1481.8196              1489.6686              1494.5500
 Red. masses --      1.0963                 1.1383                 1.1451
 Frc consts  --      1.4183                 1.4883                 1.5070
 IR Inten    --      6.3210                 9.0536                19.4307
  Atom  AN      X      Y      Z        X      Y      Z        X      Y      Z
     1   6     0.00   0.00   0.00     0.00   0.04   0.01    -0.00  -0.03  -0.02
     2   6     0.00  -0.03   0.02    -0.04   0.02  -0.03     0.00   0.02  -0.00
     3   6     0.02   0.03  -0.01    -0.02  -0.01  -0.01    -0.01  -0.03   0.00
     4   7    -0.01   0.00  -0.00     0.00   0.05  -0.00     0.00  -0.06   0.00
     5   6     0.02  -0.03   0.01     0.02  -0.01  -0.01     0.01  -0.03   0.00
     6   6     0.00   0.03  -0.02     0.04   0.02  -0.03    -0.00   0.02  -0.00
     7   6     0.01  -0.02  -0.01     0.01  -0.00  -0.00     0.00  -0.03  -0.02
     8   6    -0.01  -0.01   0.01    -0.00   0.01   0.00    -0.00  -0.01   0.01
     9   8     0.00  -0.00   0.00    -0.00  -0.03   0.00    -0.00   0.05  -0.00
    10   6     0.01   0.02   0.01    -0.01  -0.00  -0.00    -0.00  -0.03  -0.02
    11   6    -0.01   0.01  -0.01     0.00   0.01   0.00     0.00  -0.00   0.01
    12   1     0.05  -0.00  -0.00     0.00  -0.06  -0.25     0.00   0.06   0.21
    13   1    -0.05  -0.00   0.00    -0.00  -0.27   0.03     0.00   0.24  -0.03
    14   1    -0.01   0.07  -0.16     0.07  -0.07   0.41    -0.01  -0.03   0.03
    15   1    -0.11   0.12   0.02     0.39  -0.18  -0.03     0.02  -0.04  -0.00
    16   1    -0.11  -0.12  -0.02    -0.39  -0.18  -0.03    -0.02  -0.04  -0.00
    17   1    -0.01  -0.07   0.16    -0.07  -0.07   0.41     0.01  -0.03   0.03
    18   1    -0.32   0.00  -0.04    -0.15   0.02   0.03    -0.21  -0.04  -0.11
    19   1    -0.11   0.35   0.02    -0.02   0.11  -0.06    -0.14   0.38   0.16
    20   1     0.19  -0.03   0.17     0.01  -0.07   0.07     0.32   0.12   0.16
    21   1     0.18   0.12  -0.05    -0.01  -0.04   0.01     0.11   0.09  -0.03
    22   1    -0.04   0.08  -0.22     0.00  -0.01   0.02    -0.03   0.05  -0.15
    23   1    -0.12   0.01   0.09     0.00  -0.00  -0.03    -0.07   0.01   0.07
    24   1    -0.11  -0.35  -0.02     0.02   0.11  -0.06     0.14   0.38   0.15
    25   1    -0.32  -0.00   0.04     0.15   0.02   0.03     0.21  -0.04  -0.10
    26   1     0.19   0.03  -0.17    -0.01  -0.07   0.07    -0.31   0.11   0.16
    27   1     0.18  -0.12   0.05     0.01  -0.04   0.01    -0.11   0.08  -0.03
    28   1    -0.12  -0.01  -0.09    -0.00  -0.00  -0.03     0.08   0.01   0.07
    29   1    -0.04  -0.08   0.22    -0.00  -0.01   0.02     0.03   0.05  -0.14
                     61                     62                     63
                      A                      A                      A
 Frequencies --   1494.5909              1499.5305              1516.5401
 Red. masses --      1.0611                 1.1934                 3.5458
 Frc consts  --      1.3965                 1.5810                 4.8048
 IR Inten    --     16.6891                 3.9889                23.1086
  Atom  AN      X      Y      Z        X      Y      Z        X      Y      Z
     1   6     0.00  -0.00  -0.00    -0.00  -0.04  -0.03    -0.00  -0.01   0.00
     2   6    -0.00   0.00   0.00     0.02  -0.01   0.00     0.03   0.01   0.00
     3   6     0.03  -0.02  -0.00    -0.03   0.00  -0.00     0.02  -0.08  -0.00
     4   7    -0.01  -0.00   0.00     0.00   0.07  -0.00     0.00   0.34  -0.01
     5   6     0.03   0.02   0.00     0.03   0.00  -0.00    -0.02  -0.08  -0.00
     6   6    -0.00  -0.00  -0.00    -0.02  -0.01   0.00    -0.03   0.01   0.00
     7   6     0.02   0.01  -0.01     0.02   0.01  -0.02    -0.02  -0.00  -0.01
     8   6     0.01   0.02   0.01    -0.00   0.02   0.01    -0.02   0.00   0.01
     9   8     0.00   0.00  -0.00    -0.00  -0.06   0.00    -0.00  -0.24   0.02
    10   6     0.02  -0.01   0.01    -0.02   0.01  -0.02     0.02  -0.00  -0.01
    11   6     0.01  -0.02  -0.01     0.00   0.02   0.01     0.02   0.00   0.01
    12   1    -0.03   0.00   0.00    -0.00   0.11   0.34    -0.00  -0.01  -0.01
    13   1    -0.00   0.00  -0.00     0.00   0.36  -0.05    -0.00   0.00   0.00
    14   1     0.00   0.04  -0.04    -0.02  -0.04  -0.05    -0.02   0.01  -0.12
    15   1    -0.04  -0.01  -0.00    -0.03   0.05   0.01    -0.14   0.02   0.00
    16   1    -0.04   0.01   0.00     0.03   0.05   0.01     0.14   0.02   0.00
    17   1     0.00  -0.04   0.04     0.02  -0.04  -0.05     0.02   0.01  -0.12
    18   1    -0.22   0.09   0.18    -0.26   0.10   0.21     0.12  -0.05  -0.14
    19   1     0.02   0.03  -0.18     0.01   0.06  -0.16    -0.06   0.05   0.24
    20   1    -0.11  -0.24   0.11    -0.09  -0.28   0.17     0.21   0.19   0.02
    21   1    -0.05  -0.35   0.04    -0.01  -0.20   0.02     0.11   0.23  -0.04
    22   1    -0.06   0.12   0.15    -0.02   0.05   0.07     0.08  -0.16  -0.19
    23   1    -0.11  -0.11  -0.30    -0.05  -0.06  -0.18     0.09   0.09   0.20
    24   1     0.03  -0.03   0.18    -0.01   0.06  -0.16     0.06   0.05   0.24
    25   1    -0.22  -0.09  -0.18     0.26   0.10   0.21    -0.12  -0.05  -0.14
    26   1    -0.12   0.25  -0.11     0.09  -0.28   0.17    -0.21   0.19   0.02
    27   1    -0.05   0.35  -0.04     0.01  -0.20   0.02    -0.11   0.23  -0.04
    28   1    -0.11   0.11   0.31     0.05  -0.06  -0.18    -0.09   0.09   0.20
    29   1    -0.06  -0.12  -0.15     0.02   0.05   0.07    -0.08  -0.16  -0.19
                     64                     65                     66
                      A                      A                      A
 Frequencies --   3039.1881              3040.5242              3042.9739
 Red. masses --      1.0625                 1.0622                 1.0373
 Frc consts  --      5.7825                 5.7859                 5.6590
 IR Inten    --     10.8018                45.2099                 0.0005
  Atom  AN      X      Y      Z        X      Y      Z        X      Y      Z
     1   6     0.00  -0.00   0.00    -0.00  -0.01   0.01     0.00   0.00   0.00
     2   6    -0.02   0.01  -0.04    -0.02   0.01  -0.04    -0.00   0.00  -0.00
     3   6    -0.00  -0.00  -0.00    -0.00  -0.00  -0.00    -0.00  -0.00  -0.00
     4   7     0.00  -0.00   0.00    -0.00  -0.00   0.00     0.00  -0.00  -0.00
     5   6    -0.00   0.00   0.00     0.00  -0.00  -0.00    -0.00   0.00   0.00
     6   6    -0.02  -0.01   0.04     0.02   0.01  -0.04    -0.00  -0.00   0.00
     7   6     0.00  -0.00   0.01    -0.00   0.00  -0.01    -0.01   0.00  -0.03
     8   6     0.00  -0.00  -0.00    -0.01   0.00   0.01     0.01  -0.01  -0.01
     9   8    -0.00   0.00  -0.00     0.00   0.00  -0.00    -0.00   0.00   0.00
    10   6     0.00   0.00  -0.01     0.00   0.00  -0.01    -0.01  -0.00   0.03
    11   6     0.00   0.00   0.00     0.01   0.00   0.01     0.01   0.01   0.01
    12   1    -0.00   0.00  -0.00     0.00   0.10  -0.04    -0.00  -0.00   0.00
    13   1     0.00  -0.00  -0.00     0.00  -0.01  -0.05     0.00  -0.00  -0.00
    14   1     0.29  -0.16  -0.11     0.28  -0.16  -0.11     0.03  -0.02  -0.01
    15   1    -0.01  -0.00   0.58    -0.00  -0.00   0.56    -0.00  -0.00   0.06
    16   1    -0.01   0.00  -0.58     0.00  -0.00   0.56    -0.00   0.00  -0.06
    17   1     0.29   0.16   0.11    -0.28  -0.16  -0.11     0.03   0.02   0.01
    18   1     0.01   0.09  -0.03    -0.01  -0.07   0.02    -0.02  -0.31   0.10
    19   1    -0.10  -0.03  -0.01     0.08   0.03   0.01     0.34   0.11   0.03
    20   1     0.05  -0.05  -0.05    -0.04   0.04   0.04    -0.18   0.18   0.18
    21   1     0.03   0.00   0.07    -0.04  -0.00  -0.12     0.08   0.01   0.24
    22   1    -0.06  -0.04  -0.00     0.10   0.06   0.01    -0.22  -0.12  -0.01
    23   1    -0.01   0.05  -0.02     0.01  -0.08   0.03    -0.02   0.17  -0.06
    24   1    -0.10   0.03   0.01    -0.08   0.03   0.01     0.34  -0.11  -0.03
    25   1     0.01  -0.09   0.03     0.01  -0.07   0.02    -0.02   0.31  -0.10
    26   1     0.05   0.05   0.05     0.04   0.04   0.04    -0.18  -0.18  -0.18
    27   1     0.03  -0.00  -0.07     0.04  -0.00  -0.12     0.08  -0.01  -0.24
    28   1    -0.01  -0.05   0.02    -0.01  -0.08   0.03    -0.02  -0.17   0.06
    29   1    -0.06   0.04   0.00    -0.10   0.06   0.01    -0.22   0.12   0.01
                     67                     68                     69
                      A                      A                      A
 Frequencies --   3044.3565              3046.3849              3048.2785
 Red. masses --      1.0381                 1.0401                 1.0418
 Frc consts  --      5.6686                 5.6870                 5.7034
 IR Inten    --     61.4138                49.7545                 2.1639
  Atom  AN      X      Y      Z        X      Y      Z        X      Y      Z
     1   6    -0.00   0.00   0.01    -0.00  -0.00  -0.00    -0.00  -0.01  -0.01
     2   6    -0.00   0.00  -0.00     0.01  -0.00   0.01    -0.01   0.01  -0.01
     3   6     0.00   0.00   0.00    -0.00  -0.00   0.00     0.00   0.00  -0.00
     4   7    -0.00  -0.00  -0.00    -0.00  -0.00  -0.00     0.00  -0.00   0.00
     5   6    -0.00   0.00   0.00    -0.00   0.00  -0.00    -0.00   0.00  -0.00
     6   6     0.00   0.00  -0.00     0.01   0.00  -0.01     0.01   0.01  -0.01
     7   6    -0.01   0.00  -0.02     0.01  -0.00   0.02     0.01  -0.00   0.02
     8   6     0.02  -0.01  -0.02     0.02  -0.01  -0.02     0.01  -0.01  -0.02
     9   8     0.00   0.00   0.00    -0.00   0.00  -0.00     0.00   0.00  -0.00
    10   6     0.01   0.00  -0.02     0.01   0.00  -0.02    -0.01  -0.00   0.02
    11   6    -0.02  -0.01  -0.02     0.02   0.01   0.02    -0.01  -0.01  -0.02
    12   1    -0.00  -0.03   0.01     0.00   0.00  -0.00     0.00   0.16  -0.06
    13   1     0.00  -0.01  -0.09    -0.00   0.00   0.00    -0.00   0.01   0.16
    14   1     0.02  -0.01  -0.01    -0.08   0.04   0.03     0.10  -0.06  -0.04
    15   1    -0.00  -0.00   0.07     0.00   0.00  -0.16    -0.00  -0.00   0.17
    16   1     0.00  -0.00   0.07     0.00  -0.00   0.16     0.00  -0.00   0.17
    17   1    -0.02  -0.01  -0.01    -0.08  -0.04  -0.03    -0.10  -0.06  -0.04
    18   1    -0.02  -0.25   0.08     0.02   0.20  -0.07     0.02   0.28  -0.09
    19   1     0.27   0.09   0.03    -0.22  -0.07  -0.02    -0.30  -0.10  -0.03
    20   1    -0.13   0.13   0.13     0.12  -0.12  -0.12     0.15  -0.15  -0.15
    21   1     0.11   0.01   0.33     0.11   0.01   0.35     0.08   0.01   0.25
    22   1    -0.29  -0.16  -0.01    -0.30  -0.17  -0.01    -0.22  -0.12  -0.01
    23   1    -0.03   0.23  -0.08    -0.03   0.25  -0.09    -0.02   0.18  -0.07
    24   1    -0.27   0.09   0.03    -0.22   0.07   0.02     0.30  -0.10  -0.03
    25   1     0.02  -0.25   0.08     0.02  -0.20   0.07    -0.02   0.28  -0.09
    26   1     0.13   0.13   0.13     0.12   0.12   0.12    -0.15  -0.15  -0.15
    27   1    -0.11   0.01   0.33     0.11  -0.01  -0.35    -0.08   0.01   0.25
    28   1     0.03   0.23  -0.08    -0.03  -0.25   0.09     0.02   0.18  -0.07
    29   1     0.29  -0.16  -0.01    -0.30   0.17   0.01     0.22  -0.12  -0.01
                     70                     71                     72
                      A                      A                      A
 Frequencies --   3057.1426              3100.6219              3100.7845
 Red. masses --      1.0636                 1.1012                 1.1038
 Frc consts  --      5.8566                 6.2373                 6.2529
 IR Inten    --     37.5566                32.0612                32.3671
  Atom  AN      X      Y      Z        X      Y      Z        X      Y      Z
     1   6    -0.00  -0.05  -0.04     0.00   0.04  -0.03     0.00  -0.00   0.00
     2   6    -0.00   0.00   0.01    -0.04   0.02   0.04    -0.04   0.02   0.04
     3   6    -0.00   0.00   0.00    -0.00  -0.00   0.00    -0.00   0.00   0.00
     4   7     0.00   0.00   0.00     0.00  -0.00  -0.00     0.00   0.00   0.00
     5   6     0.00   0.00   0.00     0.00  -0.00   0.00    -0.00  -0.00  -0.00
     6   6     0.00   0.00   0.01     0.04   0.02   0.03    -0.04  -0.02  -0.04
     7   6    -0.01   0.00  -0.01    -0.00  -0.00   0.00     0.00   0.00  -0.00
     8   6    -0.00   0.00   0.00    -0.00  -0.00  -0.00     0.00   0.00   0.00
     9   8    -0.00  -0.00   0.00     0.00   0.00  -0.00     0.00  -0.00   0.00
    10   6     0.01   0.00  -0.01     0.00  -0.00   0.00     0.00  -0.00   0.00
    11   6     0.00   0.00   0.00     0.00  -0.00  -0.00     0.00  -0.00  -0.00
    12   1     0.00   0.54  -0.22    -0.00  -0.44   0.16     0.00   0.00  -0.00
    13   1    -0.00   0.04   0.75    -0.00   0.01   0.18    -0.00  -0.00  -0.00
    14   1     0.05  -0.03  -0.02     0.46  -0.26  -0.16     0.50  -0.28  -0.18
    15   1    -0.00   0.00  -0.11    -0.00   0.00  -0.27    -0.00   0.01  -0.35
    16   1     0.00   0.00  -0.11     0.00   0.00  -0.26    -0.00  -0.01   0.36
    17   1    -0.05  -0.03  -0.02    -0.46  -0.25  -0.16     0.51   0.28   0.18
    18   1    -0.01  -0.10   0.03    -0.00   0.01  -0.00    -0.00  -0.01   0.00
    19   1     0.11   0.04   0.01     0.01   0.00   0.00    -0.01  -0.00  -0.00
    20   1    -0.04   0.04   0.03     0.01  -0.01  -0.01    -0.00   0.00   0.00
    21   1    -0.01  -0.00  -0.03     0.01   0.00   0.02    -0.01  -0.00  -0.02
    22   1     0.02   0.01   0.00     0.01   0.01   0.00    -0.01  -0.01  -0.00
    23   1     0.00  -0.02   0.01    -0.00  -0.00  -0.00     0.00   0.00  -0.00
    24   1    -0.11   0.04   0.01    -0.01   0.00   0.00    -0.01   0.00   0.00
    25   1     0.01  -0.10   0.03     0.00   0.01  -0.00    -0.00   0.01  -0.00
    26   1     0.04   0.04   0.03    -0.01  -0.01  -0.01    -0.00  -0.00  -0.00
    27   1     0.01  -0.00  -0.03    -0.01   0.00   0.02    -0.01   0.00   0.02
    28   1    -0.00  -0.02   0.01     0.00  -0.00  -0.00     0.00  -0.00   0.00
    29   1    -0.02   0.01   0.00    -0.01   0.01   0.00    -0.01   0.01   0.00
                     73                     74                     75
                      A                      A                      A
 Frequencies --   3110.4660              3136.6505              3136.9614
 Red. masses --      1.1060                 1.1056                 1.1055
 Frc consts  --      6.3043                 6.4089                 6.4095
 IR Inten    --     56.7066                 5.3505                30.7687
  Atom  AN      X      Y      Z        X      Y      Z        X      Y      Z
     1   6     0.00   0.05  -0.07     0.00   0.00  -0.00     0.00   0.00  -0.00
     2   6     0.02  -0.01  -0.03    -0.00   0.00   0.00     0.00  -0.00  -0.00
     3   6     0.00  -0.00  -0.00    -0.00  -0.00   0.00     0.00  -0.00  -0.00
     4   7     0.00   0.00  -0.00     0.00  -0.00   0.00    -0.00  -0.00   0.00
     5   6    -0.00  -0.00  -0.00    -0.00   0.00  -0.00    -0.00  -0.00  -0.00
     6   6    -0.02  -0.01  -0.03    -0.00  -0.00  -0.00    -0.00  -0.00  -0.00
     7   6    -0.00   0.00   0.00     0.02   0.01  -0.01     0.01   0.01  -0.00
     8   6     0.00   0.00   0.00    -0.05  -0.02  -0.04    -0.05  -0.02  -0.04
     9   8     0.00  -0.00   0.00     0.00   0.00   0.00    -0.00   0.00   0.00
    10   6     0.00   0.00   0.00     0.02  -0.01   0.01    -0.01   0.01  -0.00
    11   6    -0.00   0.00   0.00    -0.05   0.02   0.04     0.05  -0.02  -0.04
    12   1    -0.00  -0.59   0.22    -0.00  -0.00   0.00    -0.00  -0.01   0.00
    13   1    -0.00   0.04   0.59    -0.00   0.00   0.00    -0.00   0.00   0.02
    14   1    -0.21   0.12   0.07     0.01  -0.01  -0.00    -0.02   0.01   0.01
    15   1     0.00  -0.00   0.24    -0.00   0.00  -0.01     0.00  -0.00   0.02
    16   1    -0.00  -0.00   0.24    -0.00  -0.00   0.01    -0.00  -0.00   0.02
    17   1     0.21   0.12   0.07     0.01   0.01   0.00     0.02   0.01   0.01
    18   1    -0.00  -0.02   0.01    -0.01  -0.13   0.04    -0.01  -0.12   0.04
    19   1     0.02   0.01   0.00    -0.20  -0.07  -0.02    -0.13  -0.04  -0.01
    20   1     0.02  -0.02  -0.02    -0.07   0.07   0.07    -0.02   0.03   0.02
    21   1    -0.01  -0.00  -0.02     0.14   0.01   0.43     0.14   0.01   0.45
    22   1    -0.01  -0.01  -0.00     0.40   0.22   0.01     0.42   0.23   0.01
    23   1    -0.00   0.01  -0.00    -0.00  -0.02   0.00    -0.00  -0.02   0.00
    24   1    -0.02   0.01   0.00    -0.20   0.07   0.02     0.13  -0.04  -0.01
    25   1     0.00  -0.02   0.01    -0.01   0.13  -0.04     0.01  -0.12   0.04
    26   1    -0.02  -0.02  -0.02    -0.07  -0.07  -0.07     0.02   0.03   0.02
    27   1     0.01  -0.00  -0.02     0.14  -0.01  -0.43    -0.14   0.01   0.45
    28   1     0.00   0.01  -0.00    -0.00   0.02  -0.00     0.00  -0.02   0.00
    29   1     0.01  -0.01  -0.00     0.40  -0.22  -0.01    -0.42   0.23   0.01
                     76                     77                     78
                      A                      A                      A
 Frequencies --   3139.7721              3141.6323              3147.9412
 Red. masses --      1.1052                 1.1047                 1.1058
 Frc consts  --      6.4193                 6.4240                 6.4562
 IR Inten    --     66.0884                11.8321                 6.1298
  Atom  AN      X      Y      Z        X      Y      Z        X      Y      Z
     1   6    -0.00  -0.00   0.00     0.00   0.00  -0.00     0.00   0.00  -0.00
     2   6    -0.00   0.00   0.00    -0.00   0.00   0.00    -0.00   0.00   0.00
     3   6    -0.00   0.00   0.00    -0.00   0.00   0.00     0.00   0.00  -0.00
     4   7     0.00  -0.00   0.00     0.00   0.00  -0.00    -0.00  -0.00  -0.00
     5   6    -0.00  -0.00  -0.00     0.00   0.00   0.00     0.00  -0.00   0.00
     6   6    -0.00  -0.00  -0.00     0.00   0.00   0.00    -0.00  -0.00  -0.00
     7   6    -0.06  -0.02   0.02     0.05   0.04  -0.01     0.02  -0.06  -0.01
     8   6    -0.02  -0.01  -0.02     0.01   0.00   0.01    -0.00   0.00  -0.00
     9   8    -0.00   0.00  -0.00    -0.00  -0.00   0.00    -0.00   0.00  -0.00
    10   6    -0.06   0.02  -0.02    -0.05   0.04  -0.01     0.02   0.06   0.01
    11   6    -0.02   0.01   0.02    -0.01   0.00   0.01    -0.00  -0.00   0.00
    12   1     0.00   0.00  -0.00    -0.00  -0.01   0.00     0.00  -0.00   0.00
    13   1    -0.00  -0.00  -0.00    -0.00   0.00   0.03    -0.00   0.00   0.00
    14   1     0.02  -0.01  -0.01     0.02  -0.01  -0.01     0.00  -0.00  -0.00
    15   1     0.00   0.00  -0.01     0.00   0.00  -0.01     0.00  -0.00  -0.00
    16   1     0.00  -0.00   0.01    -0.00   0.00  -0.01     0.00   0.00   0.00
    17   1     0.02   0.01   0.01    -0.02  -0.01  -0.01     0.00   0.00   0.00
    18   1     0.01   0.24  -0.08    -0.02  -0.39   0.13     0.04   0.47  -0.16
    19   1     0.48   0.15   0.05    -0.48  -0.15  -0.05     0.04   0.00   0.00
    20   1     0.18  -0.18  -0.18    -0.09   0.10   0.10    -0.28   0.28   0.29
    21   1     0.06   0.01   0.19    -0.04  -0.01  -0.14     0.01   0.00   0.03
    22   1     0.17   0.09   0.00    -0.11  -0.06  -0.00     0.00   0.00  -0.00
    23   1     0.00  -0.03   0.01    -0.00   0.04  -0.01     0.00  -0.04   0.01
    24   1     0.48  -0.15  -0.05     0.48  -0.15  -0.05     0.04  -0.00  -0.00
    25   1     0.01  -0.24   0.08     0.02  -0.39   0.13     0.04  -0.47   0.16
    26   1     0.18   0.18   0.18     0.09   0.10   0.10    -0.28  -0.28  -0.29
    27   1     0.06  -0.01  -0.19     0.04  -0.01  -0.14     0.01  -0.00  -0.03
    28   1     0.00   0.03  -0.01     0.00   0.04  -0.01     0.00   0.04  -0.01
    29   1     0.17  -0.09  -0.00     0.11  -0.06  -0.00     0.00  -0.00   0.00
                     79                     80                     81
                      A                      A                      A
 Frequencies --   3156.3126              3162.4608              3162.7246
 Red. masses --      1.1039                 1.1047                 1.1046
 Frc consts  --      6.4792                 6.5092                 6.5099
 IR Inten    --     28.3289                 0.0147                32.1454
  Atom  AN      X      Y      Z        X      Y      Z        X      Y      Z
     1   6     0.00   0.00  -0.01    -0.00   0.00   0.00     0.00   0.00   0.00
     2   6     0.00  -0.00  -0.00     0.00  -0.00  -0.00    -0.00   0.00   0.00
     3   6    -0.00  -0.00  -0.00    -0.00   0.00  -0.00     0.00  -0.00   0.00
     4   7     0.00  -0.00  -0.00     0.00  -0.00  -0.00    -0.00  -0.00  -0.00
     5   6     0.00  -0.00  -0.00    -0.00  -0.00   0.00    -0.00  -0.00   0.00
     6   6    -0.00  -0.00  -0.00     0.00   0.00   0.00     0.00   0.00   0.00
     7   6     0.03  -0.05  -0.02    -0.00  -0.00  -0.00     0.00  -0.01  -0.00
     8   6    -0.00   0.01  -0.00    -0.01  -0.06   0.03    -0.01  -0.06   0.03
     9   8     0.00   0.00  -0.00    -0.00   0.00   0.00     0.00   0.00   0.00
    10   6    -0.03  -0.05  -0.02    -0.00   0.00   0.00    -0.00  -0.01  -0.00
    11   6     0.00   0.01  -0.00    -0.01   0.06  -0.03     0.01  -0.06   0.03
    12   1    -0.00  -0.02   0.01     0.00  -0.00  -0.00    -0.00   0.00  -0.00
    13   1    -0.00   0.00   0.06     0.00  -0.00  -0.00    -0.00  -0.00  -0.00
    14   1    -0.00   0.00   0.00    -0.00   0.00   0.00     0.00  -0.00  -0.00
    15   1     0.00   0.00   0.01    -0.00  -0.00   0.00     0.00   0.00  -0.00
    16   1    -0.00   0.00   0.01    -0.00   0.00  -0.00    -0.00   0.00  -0.00
    17   1     0.00   0.00   0.00    -0.00  -0.00  -0.00    -0.00  -0.00  -0.00
    18   1     0.03   0.35  -0.12     0.00   0.04  -0.01     0.00   0.06  -0.02
    19   1    -0.10  -0.04  -0.01     0.02   0.01   0.00     0.02   0.01   0.00
    20   1    -0.34   0.33   0.34    -0.01   0.01   0.01    -0.03   0.03   0.03
    21   1     0.01   0.00   0.03    -0.07  -0.01  -0.20    -0.07  -0.01  -0.19
    22   1    -0.01  -0.01  -0.00     0.22   0.11   0.01     0.22   0.11   0.01
    23   1     0.01  -0.05   0.02    -0.08   0.58  -0.21    -0.08   0.58  -0.21
    24   1     0.10  -0.04  -0.01     0.02  -0.01  -0.00    -0.02   0.01   0.00
    25   1    -0.03   0.35  -0.12     0.00  -0.04   0.01    -0.00   0.06  -0.02
    26   1     0.34   0.33   0.34    -0.01  -0.01  -0.01     0.03   0.03   0.03
    27   1    -0.01   0.00   0.03    -0.07   0.01   0.20     0.07  -0.01  -0.20
    28   1    -0.01  -0.05   0.02    -0.08  -0.58   0.21     0.08   0.58  -0.21
    29   1     0.01  -0.01  -0.00     0.21  -0.11  -0.01    -0.22   0.11   0.01

 -------------------
 - Thermochemistry -
 -------------------
 Temperature   298.150 Kelvin.  Pressure   1.00000 Atm.
 Atom     1 has atomic number  6 and mass  12.00000
 Atom     2 has atomic number  6 and mass  12.00000
 Atom     3 has atomic number  6 and mass  12.00000
 Atom     4 has atomic number  7 and mass  14.00307
 Atom     5 has atomic number  6 and mass  12.00000
 Atom     6 has atomic number  6 and mass  12.00000
 Atom     7 has atomic number  6 and mass  12.00000
 Atom     8 has atomic number  6 and mass  12.00000
 Atom     9 has atomic number  8 and mass  15.99491
 Atom    10 has atomic number  6 and mass  12.00000
 Atom    11 has atomic number  6 and mass  12.00000
 Atom    12 has atomic number  1 and mass   1.00783
 Atom    13 has atomic number  1 and mass   1.00783
 Atom    14 has atomic number  1 and mass   1.00783
 Atom    15 has atomic number  1 and mass   1.00783
 Atom    16 has atomic number  1 and mass   1.00783
 Atom    17 has atomic number  1 and mass   1.00783
 Atom    18 has atomic number  1 and mass   1.00783
 Atom    19 has atomic number  1 and mass   1.00783
 Atom    20 has atomic number  1 and mass   1.00783
 Atom    21 has atomic number  1 and mass   1.00783
 Atom    22 has atomic number  1 and mass   1.00783
 Atom    23 has atomic number  1 and mass   1.00783
 Atom    24 has atomic number  1 and mass   1.00783
 Atom    25 has atomic number  1 and mass   1.00783
 Atom    26 has atomic number  1 and mass   1.00783
 Atom    27 has atomic number  1 and mass   1.00783
 Atom    28 has atomic number  1 and mass   1.00783
 Atom    29 has atomic number  1 and mass   1.00783
 Molecular mass:   156.13884 amu.
 Principal axes and moments of inertia in atomic units:
                           1         2         3
     Eigenvalues --  1215.831861691.325242101.98275
           X            1.00000   0.00002  -0.00002
           Y           -0.00002   0.99998  -0.00685
           Z            0.00002   0.00685   0.99998
 This molecule is an asymmetric top.
 Rotational symmetry number  1.
 Warning -- assumption of classical behavior for rotation
           may cause significant error
 Rotational temperatures (Kelvin)      0.07124     0.05121     0.04121
 Rotational constants (GHZ):           1.48437     1.06706     0.85859
 Zero-point vibrational energy     693039.1 (Joules/Mol)
                                  165.64032 (Kcal/Mol)
 Warning -- explicit consideration of  20 degrees of freedom as
           vibrations may cause significant error
 Vibrational temperatures:    114.27   178.95   300.85   312.55   360.99
          (Kelvin)            382.25   400.49   433.97   434.11   455.71
                              477.54   492.52   570.36   600.28   602.72
                              670.49   697.07   800.82   831.93   851.65
                              950.23  1169.10  1189.47  1267.37  1304.87
                             1364.48  1377.97  1378.44  1414.85  1443.65
                             1463.69  1465.59  1542.33  1567.90  1572.50
                             1614.81  1707.24  1757.08  1793.32  1808.65
                             1834.93  1857.50  1890.61  1925.18  1992.78
                             2008.01  2009.58  2025.73  2031.07  2042.53
                             2045.50  2102.92  2110.43  2113.38  2117.76
                             2124.80  2130.08  2132.01  2143.30  2150.32
                             2150.38  2157.49  2181.96  4372.71  4374.64
                             4378.16  4380.15  4383.07  4385.79  4398.55
                             4461.10  4461.34  4475.27  4512.94  4513.39
                             4517.43  4520.11  4529.19  4541.23  4550.08
                             4550.46
 
 Zero-point correction=                           0.263965 (Hartree/Particle)
 Thermal correction to Energy=                    0.275616
 Thermal correction to Enthalpy=                  0.276560
 Thermal correction to Gibbs Free Energy=         0.227646
 Sum of electronic and zero-point Energies=           -482.942006
 Sum of electronic and thermal Energies=              -482.930355
 Sum of electronic and thermal Enthalpies=            -482.929410
 Sum of electronic and thermal Free Energies=         -482.978324
 
                     E (Thermal)             CV                S
                      KCal/Mol        Cal/Mol-Kelvin    Cal/Mol-Kelvin
 Total                  172.952             47.191            102.948
 Electronic               0.000              0.000              1.377
 Translational            0.889              2.981             41.046
 Rotational               0.889              2.981             29.848
 Vibrational            171.174             41.229             30.676
 Vibration     1          0.600              1.963              3.905
 Vibration     2          0.610              1.929              3.031
 Vibration     3          0.642              1.827              2.052
 Vibration     4          0.646              1.815              1.982
 Vibration     5          0.663              1.761              1.724
 Vibration     6          0.672              1.736              1.624
 Vibration     7          0.679              1.714              1.544
 Vibration     8          0.694              1.671              1.408
 Vibration     9          0.694              1.670              1.407
 Vibration    10          0.704              1.642              1.327
 Vibration    11          0.714              1.612              1.251
 Vibration    12          0.721              1.591              1.201
 Vibration    13          0.763              1.478              0.976
 Vibration    14          0.780              1.433              0.901
 Vibration    15          0.782              1.429              0.896
 Vibration    16          0.823              1.325              0.749
 Vibration    17          0.841              1.284              0.698
 Vibration    18          0.912              1.125              0.531
 Vibration    19          0.935              1.078              0.489
 Vibration    20          0.949              1.049              0.464
                       Q            Log10(Q)             Ln(Q)
 Total Bot       0.194990-104       -104.709988       -241.103658
 Total V=0       0.507241D+17         16.705214         38.465177
 Vib (Bot)       0.170825-118       -118.767449       -273.472158
 Vib (Bot)    1  0.259337D+01          0.413865          0.952958
 Vib (Bot)    2  0.164136D+01          0.215203          0.495523
 Vib (Bot)    3  0.950214D+00         -0.022178         -0.051068
 Vib (Bot)    4  0.911608D+00         -0.040192         -0.092545
 Vib (Bot)    5  0.777548D+00         -0.109273         -0.251610
 Vib (Bot)    6  0.729022D+00         -0.137259         -0.316051
 Vib (Bot)    7  0.691306D+00         -0.160329         -0.369172
 Vib (Bot)    8  0.629932D+00         -0.200706         -0.462144
 Vib (Bot)    9  0.629690D+00         -0.200873         -0.462527
 Vib (Bot)   10  0.594654D+00         -0.225735         -0.519775
 Vib (Bot)   11  0.562281D+00         -0.250047         -0.575754
 Vib (Bot)   12  0.541630D+00         -0.266297         -0.613172
 Vib (Bot)   13  0.450787D+00         -0.346028         -0.796759
 Vib (Bot)   14  0.421751D+00         -0.374944         -0.863341
 Vib (Bot)   15  0.419503D+00         -0.377265         -0.868684
 Vib (Bot)   16  0.363165D+00         -0.439896         -1.012898
 Vib (Bot)   17  0.343868D+00         -0.463608         -1.067497
 Vib (Bot)   18  0.280163D+00         -0.552590         -1.272385
 Vib (Bot)   19  0.264007D+00         -0.578385         -1.331782
 Vib (Bot)   20  0.254353D+00         -0.594563         -1.369032
 Vib (V=0)       0.444379D+03          2.647753          6.096677
 Vib (V=0)    1  0.314113D+01          0.497086          1.144583
 Vib (V=0)    2  0.221582D+01          0.345535          0.795624
 Vib (V=0)    3  0.157374D+01          0.196932          0.453452
 Vib (V=0)    4  0.153973D+01          0.187443          0.431604
 Vib (V=0)    5  0.142444D+01          0.153643          0.353775
 Vib (V=0)    6  0.138401D+01          0.141139          0.324985
 Vib (V=0)    7  0.135317D+01          0.131353          0.302452
 Vib (V=0)    8  0.130425D+01          0.115360          0.265626
 Vib (V=0)    9  0.130406D+01          0.115297          0.265481
 Vib (V=0)   10  0.127693D+01          0.106166          0.244456
 Vib (V=0)   11  0.125244D+01          0.097756          0.225090
 Vib (V=0)   12  0.123713D+01          0.092416          0.212796
 Vib (V=0)   13  0.117321D+01          0.069375          0.159742
 Vib (V=0)   14  0.115412D+01          0.062251          0.143339
 Vib (V=0)   15  0.115267D+01          0.061706          0.142084
 Vib (V=0)   16  0.111797D+01          0.048431          0.111516
 Vib (V=0)   17  0.110683D+01          0.044082          0.101502
 Vib (V=0)   18  0.107314D+01          0.030657          0.070590
 Vib (V=0)   19  0.106542D+01          0.027521          0.063369
 Vib (V=0)   20  0.106098D+01          0.025706          0.059190
 Electronic      0.200000D+01          0.301030          0.693147
 Translational   0.766867D+08          7.884720         18.155239
 Rotational      0.744236D+06          5.871710         13.520113
 -------------------------------------------------------------------
 Center     Atomic                   Forces (Hartrees/Bohr)
 Number     Number              X              Y              Z
 -------------------------------------------------------------------
      1        6          -0.000000000    0.000001260    0.000000020
      2        6          -0.000001070    0.000000217   -0.000001587
      3        6          -0.000000020    0.000000653    0.000000902
      4        7          -0.000000000   -0.000001174    0.000000428
      5        6           0.000000013    0.000000652    0.000000898
      6        6           0.000001076    0.000000216   -0.000001592
      7        6           0.000000295    0.000000961    0.000001357
      8        6           0.000000284   -0.000000831   -0.000000451
      9        8           0.000000014   -0.000001189   -0.000001662
     10        6          -0.000000282    0.000000956    0.000001348
     11        6          -0.000000297   -0.000000832   -0.000000449
     12        1           0.000000001   -0.000001295   -0.000001023
     13        1           0.000000002    0.000000330   -0.000002216
     14        1           0.000000838   -0.000000671   -0.000001393
     15        1           0.000000022   -0.000000917    0.000000369
     16        1          -0.000000022   -0.000000916    0.000000367
     17        1          -0.000000839   -0.000000672   -0.000001395
     18        1           0.000000034    0.000002270    0.000000337
     19        1          -0.000001128    0.000000517   -0.000000292
     20        1           0.000000716    0.000000356   -0.000000948
     21        1           0.000000726   -0.000000910    0.000002274
     22        1          -0.000001050   -0.000001227    0.000000534
     23        1           0.000000196    0.000000619    0.000001142
     24        1           0.000001126    0.000000519   -0.000000303
     25        1          -0.000000041    0.000002272    0.000000342
     26        1          -0.000000720    0.000000358   -0.000000947
     27        1          -0.000000723   -0.000000912    0.000002270
     28        1          -0.000000199    0.000000622    0.000001141
     29        1           0.000001049   -0.000001231    0.000000531
 -------------------------------------------------------------------
 Cartesian Forces:  Max     0.000002274 RMS     0.000000958
 FormGI is forming the generalized inverse of G from B-inverse, IUseBI=4.
 Leave Link  716 at Wed Feb 28 21:03:52 2024, MaxMem=  2147483648 cpu:               1.7 elap:               0.1
 (Enter /software/gaussian-16RevA.03-el7-x86_64/g16/l103.exe)

 GradGradGradGradGradGradGradGradGradGradGradGradGradGradGradGradGradGrad
 Berny optimization.
 Red2BG is reusing G-inverse.
 Internal  Forces:  Max     0.000001882 RMS     0.000000551
 Step   1 in ReCalcFC=50 IGetFC= 4 recover analytic Hessian.
 Search for a local minimum.
 Step number   1 out of a maximum of    2
 All quantities printed in internal units (Hartrees-Bohrs-Radians)
 Second derivative matrix not updated -- analytic derivatives used.
 ITU=  0
     Eigenvalues ---    0.00229   0.00230   0.00341   0.00369   0.00466
     Eigenvalues ---    0.00615   0.00636   0.01285   0.02421   0.02543
     Eigenvalues ---    0.03861   0.03940   0.03992   0.04375   0.04459
     Eigenvalues ---    0.04464   0.04477   0.04595   0.04648   0.04655
     Eigenvalues ---    0.04737   0.04758   0.04899   0.05140   0.05718
     Eigenvalues ---    0.06093   0.06236   0.06811   0.07099   0.07256
     Eigenvalues ---    0.07683   0.08428   0.08986   0.10615   0.11433
     Eigenvalues ---    0.12237   0.12379   0.12633   0.12659   0.13383
     Eigenvalues ---    0.14325   0.14638   0.14689   0.15214   0.15403
     Eigenvalues ---    0.15657   0.15812   0.15990   0.17669   0.18823
     Eigenvalues ---    0.21665   0.22264   0.25810   0.26116   0.28430
     Eigenvalues ---    0.28460   0.28593   0.29259   0.29946   0.31401
     Eigenvalues ---    0.33076   0.33168   0.33493   0.33748   0.33755
     Eigenvalues ---    0.33922   0.34032   0.34061   0.34118   0.34135
     Eigenvalues ---    0.34152   0.34170   0.34324   0.34375   0.34392
     Eigenvalues ---    0.34494   0.34684   0.34972   0.35198   0.37481
     Eigenvalues ---    0.64933
 Angle between quadratic step and forces=  64.02 degrees.
 Linear search not attempted -- first point.
 Iteration  1 RMS(Cart)=  0.00009260 RMS(Int)=  0.00000000
 Iteration  2 RMS(Cart)=  0.00000001 RMS(Int)=  0.00000000
 ITry= 1 IFail=0 DXMaxC= 6.87D-04 DCOld= 1.00D+10 DXMaxT= 3.00D-01 DXLimC= 3.00D+00 Rises=F
 Variable       Old X    -DE/DX   Delta X   Delta X   Delta X     New X
                                 (Linear)    (Quad)   (Total)
    R1        2.87770  -0.00000   0.00000   0.00000   0.00000   2.87771
    R2        2.87770  -0.00000   0.00000   0.00000   0.00000   2.87771
    R3        2.08408  -0.00000   0.00000  -0.00000  -0.00000   2.08408
    R4        2.08633  -0.00000   0.00000  -0.00000  -0.00000   2.08632
    R5        2.90422  -0.00000   0.00000   0.00000   0.00000   2.90422
    R6        2.08533  -0.00000   0.00000  -0.00000  -0.00000   2.08533
    R7        2.08896  -0.00000   0.00000  -0.00000  -0.00000   2.08896
    R8        2.81767   0.00000   0.00000   0.00000   0.00000   2.81767
    R9        2.90655  -0.00000   0.00000   0.00000   0.00000   2.90655
   R10        2.89519  -0.00000   0.00000  -0.00000  -0.00000   2.89519
   R11        2.81767   0.00000   0.00000   0.00000   0.00000   2.81767
   R12        2.39478   0.00000   0.00000  -0.00000  -0.00000   2.39478
   R13        2.90422  -0.00000   0.00000   0.00000   0.00000   2.90422
   R14        2.90655  -0.00000   0.00000   0.00000   0.00000   2.90655
   R15        2.89519  -0.00000   0.00000  -0.00000  -0.00000   2.89519
   R16        2.08896  -0.00000   0.00000  -0.00000  -0.00000   2.08896
   R17        2.08533  -0.00000   0.00000  -0.00000  -0.00000   2.08533
   R18        2.08319  -0.00000   0.00000  -0.00000  -0.00000   2.08319
   R19        2.08475  -0.00000   0.00000  -0.00000  -0.00000   2.08474
   R20        2.08177  -0.00000   0.00000  -0.00001  -0.00001   2.08176
   R21        2.08505  -0.00000   0.00000  -0.00001  -0.00001   2.08504
   R22        2.08460  -0.00000   0.00000  -0.00000  -0.00000   2.08460
   R23        2.07891  -0.00000   0.00000  -0.00000  -0.00000   2.07891
   R24        2.08475  -0.00000   0.00000  -0.00000  -0.00000   2.08474
   R25        2.08319  -0.00000   0.00000  -0.00000  -0.00000   2.08319
   R26        2.08177  -0.00000   0.00000  -0.00001  -0.00001   2.08176
   R27        2.08505  -0.00000   0.00000  -0.00001  -0.00001   2.08504
   R28        2.07891  -0.00000   0.00000  -0.00000  -0.00000   2.07891
   R29        2.08460  -0.00000   0.00000  -0.00000  -0.00000   2.08460
    A1        1.90273   0.00000   0.00000   0.00001   0.00001   1.90275
    A2        1.91561  -0.00000   0.00000  -0.00000  -0.00000   1.91561
    A3        1.93699  -0.00000   0.00000  -0.00000  -0.00000   1.93699
    A4        1.91561  -0.00000   0.00000  -0.00000  -0.00000   1.91561
    A5        1.93699  -0.00000   0.00000  -0.00000  -0.00000   1.93699
    A6        1.85552   0.00000   0.00000  -0.00000  -0.00000   1.85552
    A7        1.98237  -0.00000   0.00000  -0.00000  -0.00000   1.98237
    A8        1.94007  -0.00000   0.00000  -0.00000  -0.00000   1.94006
    A9        1.89326   0.00000   0.00000   0.00000   0.00000   1.89327
   A10        1.88451   0.00000   0.00000   0.00000   0.00000   1.88452
   A11        1.89637  -0.00000   0.00000  -0.00001  -0.00001   1.89637
   A12        1.86318  -0.00000   0.00000   0.00000   0.00000   1.86319
   A13        1.92465   0.00000   0.00000  -0.00002  -0.00002   1.92463
   A14        1.94427  -0.00000   0.00000   0.00001   0.00001   1.94428
   A15        1.90524   0.00000   0.00000   0.00000   0.00000   1.90524
   A16        1.90393   0.00000   0.00000   0.00002   0.00002   1.90395
   A17        1.87640  -0.00000   0.00000   0.00000   0.00000   1.87641
   A18        1.90803  -0.00000   0.00000  -0.00002  -0.00002   1.90802
   A19        2.17100  -0.00000   0.00000  -0.00003  -0.00003   2.17097
   A20        2.02777   0.00000   0.00000   0.00002   0.00002   2.02779
   A21        2.02777   0.00000   0.00000   0.00002   0.00002   2.02779
   A22        1.92465   0.00000   0.00000  -0.00002  -0.00002   1.92463
   A23        1.90393   0.00000   0.00000   0.00002   0.00002   1.90395
   A24        1.87640  -0.00000   0.00000   0.00000   0.00000   1.87641
   A25        1.94427  -0.00000   0.00000   0.00001   0.00001   1.94428
   A26        1.90524   0.00000   0.00000   0.00000   0.00000   1.90524
   A27        1.90803  -0.00000   0.00000  -0.00002  -0.00002   1.90802
   A28        1.98237  -0.00000   0.00000  -0.00000  -0.00000   1.98237
   A29        1.89326   0.00000   0.00000   0.00000   0.00000   1.89327
   A30        1.94007  -0.00000   0.00000  -0.00000  -0.00000   1.94006
   A31        1.89637  -0.00000   0.00000  -0.00001  -0.00001   1.89637
   A32        1.88451   0.00000   0.00000   0.00000   0.00000   1.88452
   A33        1.86318  -0.00000   0.00000   0.00000   0.00000   1.86319
   A34        1.91484   0.00000   0.00000   0.00000   0.00000   1.91484
   A35        1.91652  -0.00000   0.00000  -0.00001  -0.00001   1.91651
   A36        1.96139  -0.00000   0.00000   0.00001   0.00001   1.96140
   A37        1.89457   0.00000   0.00000  -0.00000  -0.00000   1.89457
   A38        1.89217  -0.00000   0.00000   0.00000   0.00000   1.89217
   A39        1.88291   0.00000   0.00000  -0.00000  -0.00000   1.88290
   A40        1.92970   0.00000   0.00000   0.00001   0.00001   1.92971
   A41        1.90730  -0.00000   0.00000  -0.00001  -0.00001   1.90729
   A42        1.94245  -0.00000   0.00000   0.00000   0.00000   1.94246
   A43        1.89166   0.00000   0.00000   0.00000   0.00000   1.89166
   A44        1.89438   0.00000   0.00000   0.00000   0.00000   1.89439
   A45        1.89736  -0.00000   0.00000  -0.00001  -0.00001   1.89735
   A46        1.91652  -0.00000   0.00000  -0.00001  -0.00001   1.91651
   A47        1.91484   0.00000   0.00000   0.00000   0.00000   1.91484
   A48        1.96139  -0.00000   0.00000   0.00001   0.00001   1.96140
   A49        1.89457   0.00000   0.00000  -0.00000  -0.00000   1.89457
   A50        1.88291   0.00000   0.00000  -0.00000  -0.00000   1.88290
   A51        1.89217  -0.00000   0.00000   0.00000   0.00000   1.89217
   A52        1.92970   0.00000   0.00000   0.00001   0.00001   1.92971
   A53        1.94245  -0.00000   0.00000   0.00000   0.00000   1.94246
   A54        1.90730  -0.00000   0.00000  -0.00001  -0.00001   1.90729
   A55        1.89438   0.00000   0.00000   0.00000   0.00000   1.89439
   A56        1.89166   0.00000   0.00000   0.00000   0.00000   1.89166
   A57        1.89736  -0.00000   0.00000  -0.00001  -0.00001   1.89735
    D1        1.02913  -0.00000   0.00000  -0.00003  -0.00003   1.02911
    D2       -3.12467  -0.00000   0.00000  -0.00003  -0.00003  -3.12469
    D3       -1.08129  -0.00000   0.00000  -0.00002  -0.00002  -1.08131
    D4        3.12782   0.00000   0.00000  -0.00002  -0.00002   3.12779
    D5       -1.02598   0.00000   0.00000  -0.00002  -0.00002  -1.02601
    D6        1.01739   0.00000   0.00000  -0.00002  -0.00002   1.01738
    D7       -1.10951   0.00000   0.00000  -0.00003  -0.00003  -1.10954
    D8        1.01988  -0.00000   0.00000  -0.00003  -0.00003   1.01985
    D9        3.06325  -0.00000   0.00000  -0.00002  -0.00002   3.06323
   D10       -1.02913   0.00000   0.00000   0.00003   0.00003  -1.02911
   D11        1.08129   0.00000   0.00000   0.00002   0.00002   1.08131
   D12        3.12467   0.00000   0.00000   0.00003   0.00003   3.12469
   D13       -3.12782  -0.00000   0.00000   0.00002   0.00002  -3.12779
   D14       -1.01739  -0.00000   0.00000   0.00002   0.00002  -1.01738
   D15        1.02598  -0.00000   0.00000   0.00002   0.00002   1.02601
   D16        1.10951  -0.00000   0.00000   0.00003   0.00003   1.10954
   D17       -3.06325   0.00000   0.00000   0.00002   0.00002  -3.06323
   D18       -1.01988   0.00000   0.00000   0.00003   0.00003  -1.01985
   D19       -0.79348  -0.00000   0.00000  -0.00007  -0.00007  -0.79355
   D20        1.32320  -0.00000   0.00000  -0.00005  -0.00005   1.32315
   D21       -2.85122  -0.00000   0.00000  -0.00006  -0.00006  -2.85128
   D22       -2.95342  -0.00000   0.00000  -0.00006  -0.00006  -2.95348
   D23       -0.83674   0.00000   0.00000  -0.00004  -0.00004  -0.83678
   D24        1.27203  -0.00000   0.00000  -0.00006  -0.00006   1.27197
   D25        1.31519  -0.00000   0.00000  -0.00007  -0.00007   1.31513
   D26       -2.85131   0.00000   0.00000  -0.00005  -0.00005  -2.85136
   D27       -0.74254  -0.00000   0.00000  -0.00006  -0.00006  -0.74261
   D28        0.61296   0.00000   0.00000   0.00018   0.00018   0.61313
   D29       -2.89856   0.00000   0.00000   0.00019   0.00019  -2.89837
   D30       -1.52757   0.00000   0.00000   0.00017   0.00017  -1.52740
   D31        1.24410   0.00000   0.00000   0.00018   0.00018   1.24428
   D32        2.68837   0.00000   0.00000   0.00017   0.00017   2.68854
   D33       -0.82315   0.00000   0.00000   0.00018   0.00018  -0.82296
   D34        1.18531  -0.00000   0.00000   0.00007   0.00007   1.18538
   D35       -3.01698  -0.00000   0.00000   0.00006   0.00006  -3.01693
   D36       -0.91055  -0.00000   0.00000   0.00007   0.00007  -0.91048
   D37       -2.96916   0.00000   0.00000   0.00006   0.00006  -2.96910
   D38       -0.88827   0.00000   0.00000   0.00005   0.00005  -0.88821
   D39        1.21817   0.00000   0.00000   0.00006   0.00006   1.21823
   D40       -0.92182  -0.00000   0.00000   0.00007   0.00007  -0.92175
   D41        1.15907   0.00000   0.00000   0.00006   0.00006   1.15913
   D42       -3.01768   0.00000   0.00000   0.00007   0.00007  -3.01761
   D43        1.11683   0.00000   0.00000   0.00003   0.00003   1.11686
   D44       -3.05954   0.00000   0.00000   0.00005   0.00005  -3.05950
   D45       -0.96388   0.00000   0.00000   0.00003   0.00003  -0.96385
   D46       -0.97100  -0.00000   0.00000   0.00005   0.00005  -0.97095
   D47        1.13582   0.00000   0.00000   0.00007   0.00007   1.13588
   D48       -3.05170  -0.00000   0.00000   0.00005   0.00005  -3.05165
   D49       -3.03560  -0.00000   0.00000   0.00003   0.00003  -3.03557
   D50       -0.92878   0.00000   0.00000   0.00004   0.00004  -0.92874
   D51        1.16688  -0.00000   0.00000   0.00003   0.00003   1.16691
   D52       -0.61296  -0.00000   0.00000  -0.00018  -0.00018  -0.61313
   D53        1.52757  -0.00000   0.00000  -0.00017  -0.00017   1.52740
   D54       -2.68837  -0.00000   0.00000  -0.00017  -0.00017  -2.68854
   D55        2.89856  -0.00000   0.00000  -0.00019  -0.00019   2.89837
   D56       -1.24410  -0.00000   0.00000  -0.00018  -0.00018  -1.24428
   D57        0.82315  -0.00000   0.00000  -0.00018  -0.00018   0.82296
   D58        0.79348   0.00000   0.00000   0.00007   0.00007   0.79355
   D59       -1.31519   0.00000   0.00000   0.00007   0.00007  -1.31513
   D60        2.95342   0.00000   0.00000   0.00006   0.00006   2.95348
   D61       -1.32319   0.00000   0.00000   0.00005   0.00005  -1.32315
   D62        2.85132  -0.00000   0.00000   0.00005   0.00005   2.85136
   D63        0.83674  -0.00000   0.00000   0.00004   0.00004   0.83678
   D64        2.85122   0.00000   0.00000   0.00006   0.00006   2.85128
   D65        0.74255   0.00000   0.00000   0.00006   0.00006   0.74261
   D66       -1.27203   0.00000   0.00000   0.00006   0.00006  -1.27197
   D67        0.88827  -0.00000   0.00000  -0.00005  -0.00005   0.88821
   D68        2.96916  -0.00000   0.00000  -0.00006  -0.00006   2.96910
   D69       -1.21817  -0.00000   0.00000  -0.00006  -0.00006  -1.21823
   D70        3.01698   0.00000   0.00000  -0.00006  -0.00006   3.01693
   D71       -1.18531   0.00000   0.00000  -0.00007  -0.00007  -1.18538
   D72        0.91055   0.00000   0.00000  -0.00007  -0.00007   0.91048
   D73       -1.15907  -0.00000   0.00000  -0.00006  -0.00006  -1.15913
   D74        0.92182   0.00000   0.00000  -0.00007  -0.00007   0.92175
   D75        3.01768  -0.00000   0.00000  -0.00007  -0.00007   3.01761
   D76        0.97100   0.00000   0.00000  -0.00005  -0.00005   0.97095
   D77        3.05170   0.00000   0.00000  -0.00005  -0.00005   3.05165
   D78       -1.13582  -0.00000   0.00000  -0.00007  -0.00007  -1.13588
   D79       -1.11683  -0.00000   0.00000  -0.00003  -0.00003  -1.11686
   D80        0.96388  -0.00000   0.00000  -0.00003  -0.00003   0.96385
   D81        3.05954  -0.00000   0.00000  -0.00005  -0.00005   3.05950
   D82        3.03560   0.00000   0.00000  -0.00003  -0.00003   3.03557
   D83       -1.16688   0.00000   0.00000  -0.00003  -0.00003  -1.16691
   D84        0.92878  -0.00000   0.00000  -0.00004  -0.00004   0.92874
         Item               Value     Threshold  Converged?
 Maximum Force            0.000002     0.000450     YES
 RMS     Force            0.000001     0.000300     YES
 Maximum Displacement     0.000687     0.001800     YES
 RMS     Displacement     0.000093     0.001200     YES
 Predicted change in Energy=-1.187738D-09
 Optimization completed.
    -- Stationary point found.
                           ----------------------------
                           !   Optimized Parameters   !
                           ! (Angstroms and Degrees)  !
 --------------------------                            --------------------------
 ! Name  Definition              Value          Derivative Info.                !
 --------------------------------------------------------------------------------
 ! R1    R(1,2)                  1.5228         -DE/DX =    0.0                 !
 ! R2    R(1,6)                  1.5228         -DE/DX =    0.0                 !
 ! R3    R(1,12)                 1.1029         -DE/DX =    0.0                 !
 ! R4    R(1,13)                 1.104          -DE/DX =    0.0                 !
 ! R5    R(2,3)                  1.5368         -DE/DX =    0.0                 !
 ! R6    R(2,14)                 1.1035         -DE/DX =    0.0                 !
 ! R7    R(2,15)                 1.1054         -DE/DX =    0.0                 !
 ! R8    R(3,4)                  1.491          -DE/DX =    0.0                 !
 ! R9    R(3,10)                 1.5381         -DE/DX =    0.0                 !
 ! R10   R(3,11)                 1.5321         -DE/DX =    0.0                 !
 ! R11   R(4,5)                  1.491          -DE/DX =    0.0                 !
 ! R12   R(4,9)                  1.2673         -DE/DX =    0.0                 !
 ! R13   R(5,6)                  1.5368         -DE/DX =    0.0                 !
 ! R14   R(5,7)                  1.5381         -DE/DX =    0.0                 !
 ! R15   R(5,8)                  1.5321         -DE/DX =    0.0                 !
 ! R16   R(6,16)                 1.1054         -DE/DX =    0.0                 !
 ! R17   R(6,17)                 1.1035         -DE/DX =    0.0                 !
 ! R18   R(7,18)                 1.1024         -DE/DX =    0.0                 !
 ! R19   R(7,19)                 1.1032         -DE/DX =    0.0                 !
 ! R20   R(7,20)                 1.1016         -DE/DX =    0.0                 !
 ! R21   R(8,21)                 1.1034         -DE/DX =    0.0                 !
 ! R22   R(8,22)                 1.1031         -DE/DX =    0.0                 !
 ! R23   R(8,23)                 1.1001         -DE/DX =    0.0                 !
 ! R24   R(10,24)                1.1032         -DE/DX =    0.0                 !
 ! R25   R(10,25)                1.1024         -DE/DX =    0.0                 !
 ! R26   R(10,26)                1.1016         -DE/DX =    0.0                 !
 ! R27   R(11,27)                1.1034         -DE/DX =    0.0                 !
 ! R28   R(11,28)                1.1001         -DE/DX =    0.0                 !
 ! R29   R(11,29)                1.1031         -DE/DX =    0.0                 !
 ! A1    A(2,1,6)              109.0187         -DE/DX =    0.0                 !
 ! A2    A(2,1,12)             109.7566         -DE/DX =    0.0                 !
 ! A3    A(2,1,13)             110.9813         -DE/DX =    0.0                 !
 ! A4    A(6,1,12)             109.7566         -DE/DX =    0.0                 !
 ! A5    A(6,1,13)             110.9813         -DE/DX =    0.0                 !
 ! A6    A(12,1,13)            106.3136         -DE/DX =    0.0                 !
 ! A7    A(1,2,3)              113.5813         -DE/DX =    0.0                 !
 ! A8    A(1,2,14)             111.1577         -DE/DX =    0.0                 !
 ! A9    A(1,2,15)             108.4761         -DE/DX =    0.0                 !
 ! A10   A(3,2,14)             107.9747         -DE/DX =    0.0                 !
 ! A11   A(3,2,15)             108.6543         -DE/DX =    0.0                 !
 ! A12   A(14,2,15)            106.7525         -DE/DX =    0.0                 !
 ! A13   A(2,3,4)              110.2745         -DE/DX =    0.0                 !
 ! A14   A(2,3,10)             111.3986         -DE/DX =    0.0                 !
 ! A15   A(2,3,11)             109.1623         -DE/DX =    0.0                 !
 ! A16   A(4,3,10)             109.0871         -DE/DX =    0.0                 !
 ! A17   A(4,3,11)             107.5099         -DE/DX =    0.0                 !
 ! A18   A(10,3,11)            109.3222         -DE/DX =    0.0                 !
 ! A19   A(3,4,5)              124.3894         -DE/DX =    0.0                 !
 ! A20   A(3,4,9)              116.1827         -DE/DX =    0.0                 !
 ! A21   A(5,4,9)              116.1827         -DE/DX =    0.0                 !
 ! A22   A(4,5,6)              110.2745         -DE/DX =    0.0                 !
 ! A23   A(4,5,7)              109.0871         -DE/DX =    0.0                 !
 ! A24   A(4,5,8)              107.5099         -DE/DX =    0.0                 !
 ! A25   A(6,5,7)              111.3986         -DE/DX =    0.0                 !
 ! A26   A(6,5,8)              109.1623         -DE/DX =    0.0                 !
 ! A27   A(7,5,8)              109.3221         -DE/DX =    0.0                 !
 ! A28   A(1,6,5)              113.5813         -DE/DX =    0.0                 !
 ! A29   A(1,6,16)             108.4761         -DE/DX =    0.0                 !
 ! A30   A(1,6,17)             111.1577         -DE/DX =    0.0                 !
 ! A31   A(5,6,16)             108.6543         -DE/DX =    0.0                 !
 ! A32   A(5,6,17)             107.9747         -DE/DX =    0.0                 !
 ! A33   A(16,6,17)            106.7525         -DE/DX =    0.0                 !
 ! A34   A(5,7,18)             109.7123         -DE/DX =    0.0                 !
 ! A35   A(5,7,19)             109.8083         -DE/DX =    0.0                 !
 ! A36   A(5,7,20)             112.3793         -DE/DX =    0.0                 !
 ! A37   A(18,7,19)            108.551          -DE/DX =    0.0                 !
 ! A38   A(18,7,20)            108.4134         -DE/DX =    0.0                 !
 ! A39   A(19,7,20)            107.8825         -DE/DX =    0.0                 !
 ! A40   A(5,8,21)             110.5638         -DE/DX =    0.0                 !
 ! A41   A(5,8,22)             109.2804         -DE/DX =    0.0                 !
 ! A42   A(5,8,23)             111.2943         -DE/DX =    0.0                 !
 ! A43   A(21,8,22)            108.3841         -DE/DX =    0.0                 !
 ! A44   A(21,8,23)            108.5403         -DE/DX =    0.0                 !
 ! A45   A(22,8,23)            108.7107         -DE/DX =    0.0                 !
 ! A46   A(3,10,24)            109.8083         -DE/DX =    0.0                 !
 ! A47   A(3,10,25)            109.7123         -DE/DX =    0.0                 !
 ! A48   A(3,10,26)            112.3793         -DE/DX =    0.0                 !
 ! A49   A(24,10,25)           108.551          -DE/DX =    0.0                 !
 ! A50   A(24,10,26)           107.8825         -DE/DX =    0.0                 !
 ! A51   A(25,10,26)           108.4134         -DE/DX =    0.0                 !
 ! A52   A(3,11,27)            110.5638         -DE/DX =    0.0                 !
 ! A53   A(3,11,28)            111.2943         -DE/DX =    0.0                 !
 ! A54   A(3,11,29)            109.2804         -DE/DX =    0.0                 !
 ! A55   A(27,11,28)           108.5403         -DE/DX =    0.0                 !
 ! A56   A(27,11,29)           108.3841         -DE/DX =    0.0                 !
 ! A57   A(28,11,29)           108.7107         -DE/DX =    0.0                 !
 ! D1    D(6,1,2,3)             58.965          -DE/DX =    0.0                 !
 ! D2    D(6,1,2,14)          -179.0302         -DE/DX =    0.0                 !
 ! D3    D(6,1,2,15)           -61.9533         -DE/DX =    0.0                 !
 ! D4    D(12,1,2,3)           179.2107         -DE/DX =    0.0                 !
 ! D5    D(12,1,2,14)          -58.7846         -DE/DX =    0.0                 !
 ! D6    D(12,1,2,15)           58.2923         -DE/DX =    0.0                 !
 ! D7    D(13,1,2,3)           -63.5702         -DE/DX =    0.0                 !
 ! D8    D(13,1,2,14)           58.4345         -DE/DX =    0.0                 !
 ! D9    D(13,1,2,15)          175.5115         -DE/DX =    0.0                 !
 ! D10   D(2,1,6,5)            -58.9651         -DE/DX =    0.0                 !
 ! D11   D(2,1,6,16)            61.9533         -DE/DX =    0.0                 !
 ! D12   D(2,1,6,17)           179.0302         -DE/DX =    0.0                 !
 ! D13   D(12,1,6,5)          -179.2107         -DE/DX =    0.0                 !
 ! D14   D(12,1,6,16)          -58.2924         -DE/DX =    0.0                 !
 ! D15   D(12,1,6,17)           58.7846         -DE/DX =    0.0                 !
 ! D16   D(13,1,6,5)            63.5701         -DE/DX =    0.0                 !
 ! D17   D(13,1,6,16)         -175.5115         -DE/DX =    0.0                 !
 ! D18   D(13,1,6,17)          -58.4346         -DE/DX =    0.0                 !
 ! D19   D(1,2,3,4)            -45.4632         -DE/DX =    0.0                 !
 ! D20   D(1,2,3,10)            75.8135         -DE/DX =    0.0                 !
 ! D21   D(1,2,3,11)          -163.3629         -DE/DX =    0.0                 !
 ! D22   D(14,2,3,4)          -169.2183         -DE/DX =    0.0                 !
 ! D23   D(14,2,3,10)          -47.9416         -DE/DX =    0.0                 !
 ! D24   D(14,2,3,11)           72.882          -DE/DX =    0.0                 !
 ! D25   D(15,2,3,4)            75.355          -DE/DX =    0.0                 !
 ! D26   D(15,2,3,10)         -163.3683         -DE/DX =    0.0                 !
 ! D27   D(15,2,3,11)          -42.5447         -DE/DX =    0.0                 !
 ! D28   D(2,3,4,5)             35.1197         -DE/DX =    0.0                 !
 ! D29   D(2,3,4,9)           -166.0752         -DE/DX =    0.0                 !
 ! D30   D(10,3,4,5)           -87.5234         -DE/DX =    0.0                 !
 ! D31   D(10,3,4,9)            71.2817         -DE/DX =    0.0                 !
 ! D32   D(11,3,4,5)           154.032          -DE/DX =    0.0                 !
 ! D33   D(11,3,4,9)           -47.1629         -DE/DX =    0.0                 !
 ! D34   D(2,3,10,24)           67.9133         -DE/DX =    0.0                 !
 ! D35   D(2,3,10,25)         -172.8604         -DE/DX =    0.0                 !
 ! D36   D(2,3,10,26)          -52.1706         -DE/DX =    0.0                 !
 ! D37   D(4,3,10,24)         -170.1202         -DE/DX =    0.0                 !
 ! D38   D(4,3,10,25)          -50.8939         -DE/DX =    0.0                 !
 ! D39   D(4,3,10,26)           69.7959         -DE/DX =    0.0                 !
 ! D40   D(11,3,10,24)         -52.8167         -DE/DX =    0.0                 !
 ! D41   D(11,3,10,25)          66.4096         -DE/DX =    0.0                 !
 ! D42   D(11,3,10,26)        -172.9006         -DE/DX =    0.0                 !
 ! D43   D(2,3,11,27)           63.9894         -DE/DX =    0.0                 !
 ! D44   D(2,3,11,28)         -175.2989         -DE/DX =    0.0                 !
 ! D45   D(2,3,11,29)          -55.2262         -DE/DX =    0.0                 !
 ! D46   D(4,3,11,27)          -55.6342         -DE/DX =    0.0                 !
 ! D47   D(4,3,11,28)           65.0775         -DE/DX =    0.0                 !
 ! D48   D(4,3,11,29)         -174.8498         -DE/DX =    0.0                 !
 ! D49   D(10,3,11,27)        -173.9271         -DE/DX =    0.0                 !
 ! D50   D(10,3,11,28)         -53.2154         -DE/DX =    0.0                 !
 ! D51   D(10,3,11,29)          66.8573         -DE/DX =    0.0                 !
 ! D52   D(3,4,5,6)            -35.1198         -DE/DX =    0.0                 !
 ! D53   D(3,4,5,7)             87.5234         -DE/DX =    0.0                 !
 ! D54   D(3,4,5,8)           -154.0321         -DE/DX =    0.0                 !
 ! D55   D(9,4,5,6)            166.0752         -DE/DX =    0.0                 !
 ! D56   D(9,4,5,7)            -71.2817         -DE/DX =    0.0                 !
 ! D57   D(9,4,5,8)             47.1628         -DE/DX =    0.0                 !
 ! D58   D(4,5,6,1)             45.4633         -DE/DX =    0.0                 !
 ! D59   D(4,5,6,16)           -75.3549         -DE/DX =    0.0                 !
 ! D60   D(4,5,6,17)           169.2184         -DE/DX =    0.0                 !
 ! D61   D(7,5,6,1)            -75.8134         -DE/DX =    0.0                 !
 ! D62   D(7,5,6,16)           163.3683         -DE/DX =    0.0                 !
 ! D63   D(7,5,6,17)            47.9417         -DE/DX =    0.0                 !
 ! D64   D(8,5,6,1)            163.3629         -DE/DX =    0.0                 !
 ! D65   D(8,5,6,16)            42.5447         -DE/DX =    0.0                 !
 ! D66   D(8,5,6,17)           -72.882          -DE/DX =    0.0                 !
 ! D67   D(4,5,7,18)            50.8939         -DE/DX =    0.0                 !
 ! D68   D(4,5,7,19)           170.1202         -DE/DX =    0.0                 !
 ! D69   D(4,5,7,20)           -69.7959         -DE/DX =    0.0                 !
 ! D70   D(6,5,7,18)           172.8604         -DE/DX =    0.0                 !
 ! D71   D(6,5,7,19)           -67.9133         -DE/DX =    0.0                 !
 ! D72   D(6,5,7,20)            52.1706         -DE/DX =    0.0                 !
 ! D73   D(8,5,7,18)           -66.4097         -DE/DX =    0.0                 !
 ! D74   D(8,5,7,19)            52.8166         -DE/DX =    0.0                 !
 ! D75   D(8,5,7,20)           172.9005         -DE/DX =    0.0                 !
 ! D76   D(4,5,8,21)            55.6342         -DE/DX =    0.0                 !
 ! D77   D(4,5,8,22)           174.8497         -DE/DX =    0.0                 !
 ! D78   D(4,5,8,23)           -65.0776         -DE/DX =    0.0                 !
 ! D79   D(6,5,8,21)           -63.9894         -DE/DX =    0.0                 !
 ! D80   D(6,5,8,22)            55.2262         -DE/DX =    0.0                 !
 ! D81   D(6,5,8,23)           175.2988         -DE/DX =    0.0                 !
 ! D82   D(7,5,8,21)           173.9271         -DE/DX =    0.0                 !
 ! D83   D(7,5,8,22)           -66.8573         -DE/DX =    0.0                 !
 ! D84   D(7,5,8,23)            53.2154         -DE/DX =    0.0                 !
 --------------------------------------------------------------------------------
 Step   1 in ReCalcFC=50 IGetFC= 0 compute gradient.
 GradGradGradGradGradGradGradGradGradGradGradGradGradGradGradGradGradGrad

 Leave Link  103 at Wed Feb 28 21:03:52 2024, MaxMem=  2147483648 cpu:               2.7 elap:               0.1
 (Enter /software/gaussian-16RevA.03-el7-x86_64/g16/l9999.exe)

 ----------------------------------------------------------------------

 Electric dipole moment (input orientation):
 (Debye = 10**-18 statcoulomb cm , SI units = C m)
                  (au)            (Debye)         (10**-30 SI)
   Tot        0.159528D+01      0.405479D+01      0.135253D+02
   x          0.291692D-04      0.741408D-04      0.247307D-03
   y          0.159065D+01      0.404302D+01      0.134861D+02
   z          0.121442D+00      0.308674D+00      0.102963D+01

 Dipole polarizability, Alpha (input orientation).
 (esu units = cm**3 , SI units = C**2 m**2 J**-1)
 Alpha(0;0):
               (au)            (10**-24 esu)      (10**-40 SI)
   iso        0.131176D+03      0.194383D+02      0.216280D+02
   aniso      0.132264D+02      0.195995D+01      0.218073D+01
   xx         0.136211D+03      0.201844D+02      0.224581D+02
   yx         0.000000D+00      0.000000D+00      0.000000D+00
   yy         0.134927D+03      0.199942D+02      0.222465D+02
   zx         0.220348D-03      0.326522D-04      0.363304D-04
   zy        -0.242258D-01     -0.358989D-02     -0.399429D-02
   zz         0.122390D+03      0.181363D+02      0.201793D+02

 ----------------------------------------------------------------------

 Dipole orientation:
     6          0.00003972          0.30642844          3.99200776
     6         -2.34298751          1.13005816          2.53837797
     6         -2.49230212          0.02897516         -0.14487189
     7          0.00004194          0.26608702         -1.43764423
     6          2.49236806          0.02880450         -0.14486823
     6          2.34312463          1.12989905          2.53838079
     6          3.27762269         -2.76931557         -0.10075822
     6          4.42082777          1.54077604         -1.68665381
     8          0.00003106         -0.08933041         -3.80590236
     6         -3.27774832         -2.76909125         -0.10076528
     6         -4.42065554          1.54108067         -1.68665881
     1          0.00006829          1.18254199          5.88299545
     1         -0.00003069         -1.75673948          4.30201133
     1         -4.08474903          0.59373397          3.55190723
     1         -2.34108181          3.21481897          2.40597572
     1          2.34136026          3.21465989          2.40597734
     1          4.08484857          0.59345733          3.55191241
     1          3.13449310         -3.56960370         -2.01876427
     1          5.25330970         -2.93856331          0.54280997
     1          2.08973418         -3.90586740          1.17631567
     1          3.78904807          3.51445083         -1.91663361
     1          6.24908699          1.54815147         -0.68517168
     1          4.69691918          0.71104743         -3.57270963
     1         -5.25344736         -2.93820523          0.54280111
     1         -3.13467171         -3.56938684         -2.01877218
     1         -2.08993788         -3.90572543          1.17630796
     1         -3.78874019          3.51471245         -1.91663488
     1         -4.69680020          0.71137364         -3.57271613
     1         -6.24891608          1.54858000         -0.68517999

 Electric dipole moment (dipole orientation):
 (Debye = 10**-18 statcoulomb cm , SI units = C m)
                  (au)            (Debye)         (10**-30 SI)
   Tot        0.159528D+01      0.405479D+01      0.135253D+02
   x          0.000000D+00      0.000000D+00      0.000000D+00
   y          0.000000D+00      0.000000D+00      0.000000D+00
   z          0.159528D+01      0.405479D+01      0.135253D+02

 Dipole polarizability, Alpha (dipole orientation).
 (esu units = cm**3 , SI units = C**2 m**2 J**-1)
 Alpha(0;0):
               (au)            (10**-24 esu)      (10**-40 SI)
   iso        0.131176D+03      0.194383D+02      0.216280D+02
   aniso      0.132264D+02      0.195995D+01      0.218073D+01
   xx         0.136211D+03      0.201844D+02      0.224581D+02
   yx        -0.470532D-03     -0.697257D-04     -0.775802D-04
   yy         0.122466D+03      0.181476D+02      0.201919D+02
   zx         0.566213D-04      0.839041D-05      0.933559D-05
   zy         0.975622D+00      0.144572D+00      0.160858D+00
   zz         0.134851D+03      0.199828D+02      0.222339D+02

 ----------------------------------------------------------------------
 1\1\GINC-MIDWAY2-0621\Freq\UwB97XD\def2SVPP\C9H18N1O1(2)\ALESSANDRI\28
 -Feb-2024\0\\#P Geom=AllCheck Guess=TCheck SCRF=Check GenChk UwB97XD/d
 ef2SVPP Freq\\Cavity TEMPO DMF\\0,2\C,0.0000568961,2.1186937574,-0.000
 8700343\C,-1.2398411645,1.384898308,-0.4939868571\C,-1.3188711437,-0.0
 752508597,-0.021100416\N,0.0000058952,-0.7478419047,-0.1983127721\C,1.
 3189027195,-0.075300495,-0.0210584532\C,1.239942585,1.3848513747,-0.49
 3948133\C,1.7344670881,-0.16475296,1.4571155785\C,2.3393711742,-0.8279
 196858,-0.8809656906\O,-0.0000195908,-2.0117512047,-0.1061828416\C,-1.
 7344858632,-0.1646888752,1.4570603598\C,-2.3393403072,-0.8278307868,-0
 .8810410819\H,0.0000824598,3.1517510604,-0.3869673304\H,0.0000411324,2
 .1991517242,1.1002315028\H,-2.1615270533,1.8980888481,-0.1701539259\H,
 -1.2388526848,1.3990200255,-1.5993272158\H,1.2389889529,1.3989724925,-
 1.5992885213\H,2.1616378189,1.8980071969,-0.1700867972\H,1.6587147874,
 -1.2090104291,1.8021171995\H,2.7799633701,0.1679847238,1.5723241736\H,
 1.1058861048,0.4633101214,2.1082649073\H,2.0050278348,-0.8697532626,-1
 .93161713\H,3.3068539148,-0.29921528,-0.8445311767\H,2.4854616494,-1.8
 565086273,-0.5191470206\H,-2.7799730264,0.1680886704,1.57223654\H,-1.6
 58784363,-1.2089496636,1.8020631131\H,-1.1059010981,0.4633492441,2.108
 2301287\H,-2.0049650196,-0.86967546,-1.9316819047\H,-2.4854805738,-1.8
 564146988,-0.5192285081\H,-3.3068044951,-0.2990903543,-0.8446366925\\V
 ersion=ES64L-G16RevA.03\HF=-483.2059707\S2=0.753926\S2-1=0.\S2A=0.7500
 11\RMSD=1.717e-09\RMSF=9.585e-07\ZeroPoint=0.2639646\Thermal=0.2756161
 \Dipole=0.0000292,1.5906464,0.1214418\DipoleDeriv=0.0825929,-0.0000024
 ,-0.000001,-0.0000014,0.0221085,-0.0145918,0.0000003,0.0386444,0.12868
 49,0.0478048,-0.0493001,-0.0048631,0.0144307,0.0703615,-0.0168721,0.01
 61674,-0.0118293,0.1138584,0.4920394,-0.0798289,-0.0291927,-0.2054479,
 0.2815192,0.0243185,-0.010423,-0.0947301,0.386416,-0.1219187,0.0000017
 ,0.000005,0.000005,0.1375115,0.0689081,0.0000075,0.1935393,-0.3568266,
 0.4920478,0.0798249,0.0291966,0.2054396,0.2815078,0.0243242,0.010423,-
 0.0947277,0.3864174,0.0478078,0.0493009,0.0048607,-0.0144296,0.0703619
 ,-0.0168734,-0.0161693,-0.0118273,0.113858,-0.0464123,-0.0566962,0.018
 888,-0.0383522,-0.0409836,0.0165254,-0.0168945,0.0312821,-0.0733543,-0
 .0056562,0.0134594,0.00272,0.0333198,-0.0263696,-0.0296432,0.0075473,-
 0.0033135,0.0234038,-0.737322,-0.0000034,-0.0000077,0.0000012,-0.74117
 1,-0.0847149,-0.0000062,0.0068362,-0.3516073,-0.0464091,0.0566958,-0.0
 188873,0.0383518,-0.0409873,0.0165261,0.0168962,0.0312833,-0.0733539,-
 0.0056576,-0.0134591,-0.002722,-0.0333194,-0.0263682,-0.0296446,-0.007
 5485,-0.003314,0.0234032,0.0132948,-0.0000054,0.,-0.000005,-0.2021294,
 0.0565826,0.0000009,0.0955522,0.0665581,0.0026564,0.0000028,0.0000029,
 0.0000021,0.1059537,0.0044228,0.0000016,-0.0583784,-0.1894245,-0.15596
 19,0.0890712,0.0358869,0.06316,0.0029361,-0.0116796,0.0700732,-0.04352
 53,0.0681085,0.0542779,-0.0336225,0.0286661,-0.0340128,0.0215791,-0.00
 96323,-0.0267954,0.031789,-0.199949,0.0542804,0.0336203,-0.0286586,0.0
 340119,0.0215762,-0.0096295,0.0268046,0.0317894,-0.1999504,-0.1559635,
 -0.0890637,-0.0358944,-0.0631538,0.0029418,-0.0116805,-0.0700817,-0.04
 35252,0.0681055,0.104475,-0.0227819,0.0036482,0.0134374,-0.0945303,0.1
 004067,-0.0056826,0.0332212,0.0328612,-0.145212,-0.0781654,-0.0562848,
 -0.0725505,0.0810106,-0.0010947,-0.0223907,-0.0128203,0.0582774,0.0184
 622,0.0954777,0.0960634,0.0870394,0.0201241,-0.0976139,0.0688044,-0.06
 26643,-0.0319139,0.0431954,0.020525,-0.0834674,0.0304144,0.0739613,-0.
 0051663,-0.0195853,-0.0314188,-0.1493529,-0.1170255,-0.0759738,0.01715
 17,-0.1112885,0.0357458,-0.0150949,-0.0053294,-0.0350852,0.0762799,0.0
 903531,0.0264311,0.0126907,0.0801615,-0.0864857,0.0302404,0.0081936,0.
 0609928,0.0466749,-0.1452084,0.0781743,0.0562784,0.07256,0.0810045,-0.
 0010946,0.0223825,-0.0128181,0.0582803,0.1044754,0.0227728,-0.0036418,
 -0.0134485,-0.0945309,0.1004064,0.0056864,0.0332217,0.0328614,0.018460
 7,-0.0954747,-0.0960647,-0.0870359,0.0201296,-0.0976115,-0.0688052,-0.
 0626629,-0.0319205,0.0431902,-0.0205228,0.0834733,-0.0304132,0.0739632
 ,-0.0051703,0.0195903,-0.0314198,-0.1493495,0.0903508,-0.0264376,-0.01
 26883,-0.0801692,-0.0864792,0.0302378,-0.0081899,0.0609915,0.0466745,-
 0.1170177,0.0759803,-0.0171584,0.1112934,0.035739,-0.0150908,0.0053228
 ,-0.035083,0.0762793\Polar=136.2107933,-0.0000016,134.9272471,0.000220
 3,-0.0242258,122.3895109\Quadrupole=3.6702693,-4.6518193,0.98155,-0.00
 00987,0.0000372,-0.5449797\PG=C01 [X(C9H18N1O1)]\NImag=0\\0.47554328,0
 .00000263,0.58630770,-0.00000242,-0.02442693,0.60005900,-0.16827445,-0
 .05039548,-0.03459035,0.57764551,-0.05128536,-0.11275942,-0.01892961,-
 0.03707931,0.49334703,-0.03908414,-0.02031784,-0.10065801,-0.02878423,
 0.01940111,0.58863422,0.00009253,-0.02831938,0.01020844,-0.08463468,-0
 .00445868,0.00271115,0.47363854,-0.00719674,-0.01925295,0.00135695,-0.
 00803065,-0.17368395,0.03712002,0.03319225,0.53679638,0.00201949,-0.01
 160749,0.00553718,0.00107733,0.03280380,-0.09297817,0.01339403,-0.0064
 0104,0.48946624,-0.00017346,0.00000018,-0.00000002,0.00571581,0.004658
 61,-0.00235003,-0.15779988,0.00306809,0.01691580,0.54421226,0.00000008
 ,0.00318013,-0.00121627,0.03250664,-0.02184509,-0.00438831,0.01666717,
 -0.09454531,-0.00868975,0.00000461,0.77631464,-0.00000003,-0.00110621,
 0.00028097,-0.00789383,0.00226327,0.00106163,0.00609711,-0.00312341,-0
 .05906415,0.00000581,-0.01997406,0.15035384,0.00009422,0.02831903,-0.0
 1020858,0.00095432,0.00086414,-0.00082262,-0.01523329,-0.00526946,-0.0
 0623043,-0.15779986,-0.01666446,-0.00610041,0.47363736,0.00719592,-0.0
 1925445,0.00135758,-0.00119720,0.00128688,0.00019887,0.00527037,0.0162
 8575,0.00317836,-0.00306548,-0.09454450,-0.00312332,-0.03318923,0.5367
 9907,-0.00202010,-0.01160656,0.00553679,-0.00076340,0.00041979,0.00016
 427,0.00623000,0.00317797,0.00186515,-0.01691926,-0.00868963,-0.059064
 80,-0.01339471,-0.00640170,0.48946537,-0.16827283,0.05039794,0.0345875
 3,-0.03577032,0.01207717,0.00788760,0.00095460,0.00119722,0.00076343,0
 .00571411,-0.03250747,0.00789413,-0.08463404,0.00802587,-0.00107586,0.
 57764629,0.05128796,-0.11276283,-0.01892933,-0.01207620,0.01037744,0.0
 0561793,-0.00086411,0.00128692,0.00041968,-0.00465976,-0.02184304,0.00
 226272,0.00445392,-0.17368436,0.03280401,0.03707663,0.49334312,0.03908
 125,-0.02031785,-0.10065572,-0.00788852,0.00561862,0.00362597,0.000822
 63,0.00019886,0.00016432,0.00235001,-0.00438962,0.00106200,-0.00270940
 ,0.03712044,-0.09297832,0.02878453,0.01940150,0.58863605,-0.00021884,-
 0.00019136,-0.00031736,-0.00030416,-0.00026645,0.00014351,0.00157206,-
 0.00120114,-0.00042801,-0.02551025,-0.00735172,-0.03545639,-0.08062397
 ,0.00453702,-0.02400563,0.00032905,0.00190526,-0.00278835,0.58422908,-
 0.00055064,0.00054950,0.00068515,-0.00008433,-0.00021474,0.00012189,0.
 00061844,-0.00064208,0.00005006,-0.00942029,-0.00038159,-0.01437391,0.
 00469615,-0.08034350,0.00761423,0.00704398,-0.00425358,0.03337723,0.00
 456092,0.59901518,-0.00031071,-0.00035628,0.00095517,0.00003354,0.0000
 1248,-0.00036864,-0.00032401,0.00070796,0.00012834,-0.01404757,-0.0071
 5655,-0.00566105,-0.01791459,0.00626018,-0.17827747,-0.00244473,0.0073
 1372,-0.01429642,-0.03875339,0.01264379,0.48837933,0.00021226,-0.00051
 073,0.00020347,-0.00013468,-0.00044704,0.00003660,-0.00035812,-0.00346
 887,0.00103226,-0.04445782,0.00979120,0.01731225,-0.12117374,0.0358285
 5,0.04269627,-0.00336435,0.00770586,0.00053651,0.00670394,-0.00273887,
 -0.00091122,0.54693303,-0.00139395,-0.00528798,0.00173949,-0.00037033,
 -0.00025041,-0.00001137,-0.00071165,-0.00289097,-0.00010393,-0.0129319
 8,0.00969184,0.00812999,0.04032739,-0.11070109,-0.03439256,0.02629027,
 -0.02295869,-0.01632823,-0.00041220,-0.00005226,-0.00167814,0.03461084
 ,0.58240107,0.00018530,0.00274509,-0.00068425,0.00027123,-0.00002907,0
 .00024992,-0.00072265,-0.00099781,-0.00079199,0.00107947,0.00447613,0.
 00291831,0.04467118,-0.03517531,-0.11634736,-0.00699562,0.00259637,0.0
 0475804,0.02056880,-0.01913406,-0.02841085,0.04588508,-0.03174762,0.56
 286770,-0.00069880,0.00000004,0.,-0.00734319,0.00198624,0.00248615,0.0
 0651710,0.03851298,-0.00534788,-0.10325600,-0.00000902,-0.00000051,0.0
 0651503,-0.03851485,0.00534813,-0.00734345,-0.00198597,-0.00248653,0.0
 0027571,-0.00076088,0.00047376,-0.00388484,-0.00131764,-0.00052870,0.1
 1386086,0.00000004,0.00173021,0.00046147,0.00660741,0.00018188,-0.0030
 1596,0.00970955,-0.04657818,0.00196829,-0.00000901,-0.54742378,0.03684
 247,-0.00971162,-0.04657633,0.00196777,-0.00660704,0.00018218,-0.00301
 606,0.00123764,-0.00011155,0.00267889,0.00372387,0.00021791,-0.0010889
 1,0.00001028,0.63561065,0.,-0.00001164,-0.00021934,-0.00007498,0.00058
 671,0.00090331,0.00070364,-0.00387310,0.00206211,-0.00000034,0.0462680
 9,-0.02507323,-0.00070363,-0.00387432,0.00206224,0.00007475,0.00058660
 ,0.00090323,-0.00015737,0.00001586,-0.00055123,0.00021428,0.00002859,0
 .00069110,0.00000063,-0.03839738,0.01622213,-0.00021882,0.00019142,0.0
 0031739,0.00032853,-0.00190567,0.00279007,-0.08062566,-0.00453721,0.02
 400905,-0.02551120,0.00735289,0.03545523,0.00157205,0.00120102,0.00042
 806,-0.00030413,0.00026646,-0.00014352,-0.00075690,-0.00082444,-0.0007
 9788,-0.00060826,-0.00026340,-0.00011140,0.00027569,-0.00123774,0.0001
 5741,0.58422667,0.00055065,0.00054945,0.00068520,-0.00704523,-0.004253
 27,0.03337690,-0.00469638,-0.08034315,0.00761329,0.00942168,-0.0003822
 1,-0.01437496,-0.00061854,-0.00064211,0.00005002,0.00008435,-0.0002147
 6,0.00012189,0.00082449,0.00091981,0.00037239,0.00027692,0.00016896,-0
 .00001857,0.00076089,-0.00011152,0.00001587,-0.00456078,0.59901560,0.0
 0031067,-0.00035623,0.00095516,0.00244546,0.00731357,-0.01429621,0.017
 91795,0.00625940,-0.17827609,0.01404668,-0.00715686,-0.00565952,0.0003
 2412,0.00070797,0.00012834,-0.00003354,0.00001250,-0.00036865,0.000797
 89,0.00037231,0.00064080,-0.00011422,-0.00002775,-0.00014576,-0.000473
 62,0.00267886,-0.00055125,0.03875692,0.01264238,0.48838172,0.00021234,
 0.00051045,-0.00020338,-0.00336584,-0.00770671,-0.00053739,-0.12117377
 ,-0.03582698,-0.04269777,-0.04445703,-0.00978929,-0.01731345,-0.000357
 96,0.00346880,-0.00103224,-0.00013464,0.00044705,-0.00003662,-0.000608
 27,-0.00027689,0.00011420,-0.00040347,-0.00054194,-0.00032004,-0.00388
 499,-0.00372363,-0.00021443,0.00670469,0.00273924,0.00091228,0.5469330
 7,0.00139369,-0.00528807,0.00173955,-0.02629053,-0.02295744,-0.0163290
 7,-0.04032587,-0.11069811,-0.03439230,0.01293372,0.00969175,0.00813105
 ,0.00071155,-0.00289112,-0.00010386,0.00037033,-0.00025045,-0.00001136
 ,0.00026343,0.00016896,-0.00002774,0.00054197,0.00055084,0.00022298,0.
 00131790,0.00021806,0.00002869,0.00041202,-0.00005236,-0.00167813,-0.0
 3460828,0.58240373,-0.00018517,0.00274511,-0.00068427,0.00699544,0.002
 59585,0.00475823,-0.04467271,-0.03517482,-0.11635021,-0.00108079,0.004
 47586,0.00291774,0.00072264,-0.00099772,-0.00079200,-0.00027126,-0.000
 02904,0.00024991,0.00011138,-0.00001858,-0.00014575,0.00032002,0.00022
 295,0.00030208,0.00052850,-0.00108902,0.00069109,-0.02056841,-0.019133
 16,-0.02841147,-0.04588693,-0.03174698,0.56286461,-0.04697667,-0.00000
 589,0.00000227,-0.00037278,-0.02763064,0.01150101,-0.00482553,-0.00075
 238,-0.00306303,-0.00052458,0.00000002,0.,-0.00482556,0.00075262,0.003
 06282,-0.00037142,0.02763054,-0.01150093,0.00018419,0.00005056,0.00044
 487,0.00028357,0.00143223,-0.00069584,0.00057272,-0.00000002,0.,0.0001
 8421,-0.00005056,-0.00044487,0.00028350,-0.00143227,0.00069587,0.05371
 750,-0.00000584,-0.28036699,0.08938056,0.00038478,-0.01350516,0.005500
 50,-0.00244375,0.00101137,-0.00215575,0.00000003,0.00097888,0.00020362
 ,0.00244405,0.00101124,-0.00215580,-0.00038545,-0.01350618,0.00550092,
 -0.00008992,0.00004223,-0.00025810,-0.00014642,-0.00084575,0.00056367,
 -0.00000002,-0.00042218,0.00003361,0.00008992,0.00004223,-0.00025808,0
 .00014636,-0.00084570,0.00056365,0.00000619,0.30081800,0.00000232,0.09
 251178,-0.08468731,-0.00061892,-0.01239587,0.00345859,-0.00181602,-0.0
 0067769,-0.00070034,0.,0.00034865,-0.00004093,0.00181586,-0.00067775,-
 0.00070019,0.00061833,-0.01239501,0.00345824,0.00006809,-0.00011492,-0
 .00018572,-0.00000271,-0.00032944,0.00023942,0.,0.00000921,0.00000829,
 -0.00006809,-0.00011492,-0.00018574,0.00000270,-0.00032949,0.00023944,
 -0.00000228,-0.09517471,0.08561900,-0.04911110,0.00000026,0.00000381,0
 .00023187,-0.00026136,-0.02924466,0.00096795,0.00068468,0.00019450,-0.
 00033530,0.,0.,0.00096792,-0.00068471,-0.00019449,0.00023091,0.0002613
 7,0.02924430,-0.00029570,0.00041797,-0.00000333,-0.00001327,-0.0001100
 9,-0.00013854,0.00024477,0.,0.,-0.00029570,-0.00041796,0.00000330,-0.0
 0001327,0.00011010,0.00013853,-0.00049453,0.00000010,0.00000068,0.0545
 7808,0.00000021,-0.05123596,-0.01479378,0.00060567,-0.00094372,-0.0159
 9456,0.00071816,0.00050704,-0.00079015,0.,-0.00035292,0.00005075,-0.00
 071817,0.00050712,-0.00079012,-0.00060518,-0.00094378,-0.01599561,0.00
 067249,-0.00050656,-0.00012833,0.00012125,0.00008236,0.00010568,0.,0.0
 0011532,0.00005122,-0.00067247,-0.00050640,-0.00012847,-0.00012125,0.0
 0008236,0.00010567,-0.00000037,0.00378695,0.02888401,-0.00000051,0.051
 18407,0.00000376,-0.01713440,-0.30917720,-0.00022408,-0.00053014,-0.00
 894990,0.00023318,0.00077345,-0.00049006,0.,-0.00010542,0.00006081,-0.
 00023312,0.00077345,-0.00049008,0.00022435,-0.00053012,-0.00894903,-0.
 00013897,0.00014485,-0.00031765,-0.00004024,-0.00012448,0.00016293,0.,
 -0.00022348,0.00005239,0.00013895,0.00014475,-0.00031755,0.00004023,-0
 .00012448,0.00016293,0.00000011,-0.00114667,-0.00938694,-0.00000394,0.
 01812730,0.33425958,-0.02001017,0.01307988,0.00898325,-0.23096243,0.10
 409276,0.06633638,-0.00025850,-0.00132130,-0.00035105,0.00078763,-0.00
 091625,-0.00003944,0.00043857,-0.00062026,0.00023643,-0.00365982,-0.00
 432734,-0.00305991,0.00003591,0.00009726,0.00007298,0.00005256,0.00012
 356,-0.00012425,0.00025805,0.00024234,-0.00002721,0.00049973,-0.000791
 01,0.00035795,0.00028615,-0.00030601,-0.00026481,0.00095946,-0.0000500
 9,0.00036128,0.00090026,0.00029386,-0.00027505,0.24982256,-0.01494083,
 0.00895645,0.00679410,0.10257447,-0.10650707,-0.03717370,0.02689323,-0
 .01367612,-0.00961868,-0.00346289,-0.00447037,0.00158098,-0.00086303,-
 0.00059617,-0.00012932,-0.00287396,-0.00150235,-0.00156260,0.00015291,
 0.00011016,-0.00006014,0.00015420,0.00020331,0.00003706,0.00240803,-0.
 00255959,0.00030115,0.00077411,0.00114552,-0.00074513,0.00093526,0.000
 59577,0.00006512,0.00048687,0.00073872,0.00046038,0.00074778,0.0004491
 3,0.00003210,-0.10909598,0.11653381,-0.01106196,0.00650435,0.00319312,
 0.06916840,-0.03948506,-0.07400222,-0.00959610,0.00620953,0.00187587,0
 .00063714,0.00200330,-0.00019238,0.00022613,-0.00009899,-0.00022022,-0
 .00132312,-0.00130561,-0.00031149,-0.00001862,-0.00002875,0.00005260,-
 0.00002819,0.00000932,-0.00002010,-0.00075925,0.00081148,0.00022848,-0
 .00070549,0.00081887,0.00012556,0.00000666,-0.00048387,-0.00027898,0.0
 0066735,0.00011337,0.00017579,0.00029459,0.00059823,0.00058199,-0.0720
 0188,0.03900002,0.07469327,-0.00179877,-0.00063258,-0.02855950,-0.0499
 0492,0.00171718,0.00398201,-0.00122300,0.00021937,0.00051256,0.0002207
 9,0.00005398,-0.00029338,-0.00020631,0.00002465,-0.00010609,0.00136067
 ,0.00008718,-0.00169800,0.00007354,-0.00006866,-0.00005415,0.00001651,
 0.00002299,0.00001715,0.00003447,-0.00009435,0.00006074,0.00045465,-0.
 00140376,0.00060818,0.00001535,-0.00088111,0.00084874,0.00099270,0.000
 27013,0.00049727,-0.00423944,-0.00251247,-0.00178221,0.00139585,-0.001
 44696,0.02543464,0.05300161,-0.00107792,-0.00090447,-0.01784718,0.0022
 2662,-0.04864619,0.00038556,-0.00272942,-0.00232582,0.03243854,-0.0004
 5100,0.00113302,-0.00027534,-0.00004818,-0.00025253,0.00021738,0.00097
 707,0.00019998,0.00024329,0.00004280,0.00007708,-0.00007341,0.00003749
 ,0.00010646,-0.00000873,-0.00004277,-0.00003365,-0.00034101,0.00043293
 ,-0.00590378,0.00073511,0.00023259,0.00073161,0.00192334,0.00057527,0.
 00031662,-0.00024166,-0.00347582,-0.00079095,-0.00099155,-0.00107255,0
 .00028353,-0.01465924,0.00496083,0.05647365,-0.00019709,-0.00076476,-0
 .01128122,0.00262060,0.00305519,-0.30703302,0.00110975,-0.00049492,-0.
 01068920,0.00024672,-0.00025065,0.00028844,-0.00012561,0.00012497,-0.0
 0022376,0.00152600,0.00043840,0.00083952,0.00003601,-0.00011706,-0.000
 02876,-0.00002141,0.00002431,-0.00007779,-0.00022634,0.00033432,0.0000
 9944,-0.00065021,0.00275026,0.00055956,-0.00083452,-0.00176053,0.00095
 819,-0.00000936,-0.00027231,0.00069655,-0.00191890,-0.00119882,0.00052
 371,-0.00055192,0.00043127,-0.00702747,-0.00070746,-0.00275636,0.33071
 437,-0.00179960,0.00063264,0.02855913,0.00136063,-0.00008725,0.0016980
 4,-0.00020630,-0.00002466,0.00010610,0.00022080,-0.00005396,0.00029338
 ,-0.00122285,-0.00021937,-0.00051104,-0.04990486,-0.00171720,-0.003973
 98,0.00045468,0.00140344,-0.00060816,0.00001538,0.00088117,-0.00084869
 ,0.00003447,0.00009434,-0.00006075,0.00007354,0.00006867,0.00005415,0.
 00001651,-0.00002299,-0.00001715,0.00099269,-0.00027015,-0.00049727,-0
 .00423933,0.00251264,0.00178203,0.00037318,0.00017758,-0.00028944,-0.0
 0083564,-0.00000098,-0.00059999,0.05300118,0.00107850,-0.00090455,-0.0
 1784825,-0.00097714,0.00020002,0.00024319,0.00004818,-0.00025253,0.000
 21738,0.00045104,0.00113300,-0.00027534,0.00272839,-0.00232588,0.03243
 865,-0.00222657,-0.04864602,0.00038548,-0.00043319,-0.00590382,0.00073
 512,-0.00023263,0.00073160,0.00192336,0.00004278,-0.00003365,-0.000341
 01,-0.00004280,0.00007708,-0.00007341,-0.00003749,0.00010647,-0.000008
 72,-0.00057529,0.00031665,-0.00024166,0.00347599,-0.00079118,-0.000991
 50,-0.00008619,-0.00014893,0.00007492,0.00000103,0.00023080,0.00035398
 ,-0.00496063,0.05647398,0.00019736,-0.00076475,-0.01128030,-0.00152595
 ,0.00043846,0.00083953,0.00012561,0.00012496,-0.00022376,-0.00024673,-
 0.00025063,0.00028844,-0.00110950,-0.00049491,-0.01068926,-0.00261244,
 0.00305508,-0.30703321,0.00065031,0.00275029,0.00055956,0.00083442,-0.
 00176052,0.00095819,0.00022635,0.00033432,0.00009945,-0.00003601,-0.00
 011705,-0.00002876,0.00002141,0.00002431,-0.00007779,0.00000935,-0.000
 27231,0.00069654,0.00191871,-0.00119882,0.00052382,-0.00004435,-0.0000
 9769,0.00042981,0.00059992,0.00035394,0.00044936,0.00069873,-0.0027563
 9,0.33071440,-0.02001016,-0.01307897,-0.00898371,-0.00365969,0.0043274
 4,0.00305975,0.00043865,0.00062022,-0.00023641,0.00078782,0.00091601,0
 .00003952,-0.00025978,0.00132060,0.00035063,-0.23096622,-0.10408691,-0
 .06634272,0.00049972,0.00079102,-0.00035798,0.00028611,0.00030604,0.00
 026483,0.00025793,-0.00024247,0.00002722,0.00003590,-0.00009726,-0.000
 07298,0.00005255,-0.00012355,0.00012425,0.00095948,0.00005007,-0.00036
 124,0.00090022,-0.00029389,0.00027506,-0.00155740,-0.00096766,-0.00045
 714,0.00037317,0.00008616,0.00004435,0.00139672,0.00107297,0.00055220,
 0.24982665,0.01494172,0.00895637,0.00679491,0.00287407,-0.00150262,-0.
 00156263,0.00086301,-0.00059623,-0.00012928,0.00346263,-0.00447051,0.0
 0158109,-0.02689344,-0.01367518,-0.00961950,-0.10256867,-0.10649933,-0
 .03717441,-0.00077405,0.00114552,-0.00074513,-0.00093526,0.00059579,0.
 00006508,-0.00240815,-0.00255948,0.00030108,-0.00015290,0.00011017,-0.
 00006014,-0.00015420,0.00020332,0.00003705,-0.00048689,0.00073874,0.00
 046037,-0.00074780,0.00044918,0.00003206,0.00096773,0.00058612,0.00010
 846,-0.00017760,-0.00014892,-0.00009770,0.00144689,0.00028342,0.000431
 29,0.10908982,0.11652573,0.01106147,0.00650352,0.00319318,0.00132299,-
 0.00130550,-0.00031136,-0.00022613,-0.00009896,-0.00022023,-0.00063704
 ,0.00200332,-0.00019240,0.00959629,0.00620922,0.00187617,-0.06917485,-
 0.03948571,-0.07400643,0.00070551,0.00081888,0.00012552,-0.00000665,-0
 .00048386,-0.00027898,0.00075928,0.00081144,0.00022851,0.00001862,-0.0
 0002876,0.00005260,0.00002819,0.00000931,-0.00002009,-0.00066732,0.000
 11340,0.00017576,-0.00029456,0.00059822,0.00058200,0.00045708,0.000108
 42,0.00054128,0.00028944,0.00007491,0.00042982,-0.02543492,-0.01465825
 ,-0.00702824,0.07200888,0.03900070,0.07469782,0.00018426,-0.00003385,0
 .00007032,0.00013616,0.00002723,-0.00003942,-0.00022511,0.00019197,-0.
 00016499,0.00057088,0.00125594,0.00027004,-0.00133127,0.00892567,-0.00
 406044,-0.00026610,-0.00027830,-0.00183502,-0.05008937,-0.01925771,0.0
 0832458,-0.00023666,-0.00045843,0.00074099,-0.00031706,-0.00027211,-0.
 00004767,0.00021309,-0.00018309,0.00001614,0.00004326,-0.00005244,-0.0
 0000632,-0.00001654,-0.00000419,-0.00007481,0.00011097,-0.00019344,-0.
 00009133,-0.00001522,-0.00003532,0.00000626,-0.00002714,-0.00004210,-0
 .00000256,0.00020200,0.00056351,-0.00021753,0.00021286,0.00016874,0.00
 008423,0.04741851,-0.00019544,0.00005001,-0.00001407,-0.00004552,-0.00
 004509,-0.00002210,-0.00000384,-0.00007184,0.00017101,-0.00032493,-0.0
 0109638,-0.00026742,0.00022990,-0.00213623,-0.00022926,0.00012066,0.00
 101238,0.00062010,-0.01780948,-0.29568616,0.08032325,0.00012286,0.0005
 8365,-0.00044242,-0.00056465,0.00119356,-0.00096865,-0.00006199,-0.000
 03240,-0.00002471,0.00001766,0.00003932,-0.00003016,0.00005043,-0.0000
 4471,0.00005187,-0.00010765,0.00017357,0.00005717,0.00004913,0.0000129
 8,0.00000066,0.00002390,0.00002532,0.00001233,0.00011629,-0.00016655,0
 .00016009,0.00009770,0.00023288,-0.00017549,0.01979450,0.31305805,0.00
 036355,-0.00018939,-0.00032295,0.00008748,0.00006430,0.00008539,-0.000
 29285,0.00007035,-0.00023596,0.00153300,0.00196100,0.00202344,0.002145
 94,0.03045152,-0.01035617,-0.00141992,-0.00109971,-0.00606146,0.006869
 77,0.07669162,-0.07185971,-0.00048165,0.00111506,0.00122557,0.00043923
 ,-0.00124647,0.00061341,0.00010988,0.00001014,0.00001195,0.00004735,-0
 .00005074,-0.00000478,-0.00014357,0.00010136,0.00014755,-0.00015067,0.
 00009981,0.00020364,-0.00005989,-0.00005733,0.00000648,0.00004515,0.00
 000262,0.00003036,-0.00042652,0.00175957,-0.00070824,-0.00004128,-0.00
 036985,0.00009115,-0.00588751,-0.08655744,0.07851440,-0.00000172,0.000
 19703,0.00009086,0.00005962,-0.00009420,0.00008120,0.00058013,-0.00039
 844,0.00007020,-0.00006274,0.00065042,-0.00261228,-0.00777123,-0.00259
 828,0.00139661,0.00010407,-0.00043945,0.00048254,-0.29264790,-0.078003
 54,-0.02523163,0.00030889,0.00013740,0.00144971,0.00002590,-0.00014405
 ,0.00027331,-0.00016929,0.00037859,0.00027907,-0.00009917,0.00010980,0
 .00005207,-0.00001839,0.00003607,-0.00009808,0.00001717,-0.00017187,-0
 .00012490,-0.00001486,0.00005590,-0.00000228,-0.00000396,0.00000892,-0
 .00004483,0.00023227,0.00016803,-0.00000328,0.00020406,0.00047941,-0.0
 0012104,0.00129460,0.00109851,0.00004949,0.31070611,0.00005968,-0.0002
 0164,-0.00011731,-0.00005269,0.00005729,-0.00000666,0.00005496,-0.0002
 1157,-0.00031470,-0.00043935,-0.00054409,-0.00019454,0.00287852,-0.000
 78093,0.00138470,0.00061395,0.00010238,0.00009907,-0.07767349,-0.07325
 450,-0.00840124,-0.00015766,0.00011470,-0.00038088,-0.00032061,0.00113
 275,-0.00037507,0.00014652,-0.00021878,-0.00019678,-0.00008616,0.00004
 563,0.00005275,0.00000278,0.00000249,0.00007691,-0.00001464,0.00004695
 ,0.00010292,-0.00001649,0.00000592,-0.00000416,-0.00000127,-0.00000610
 ,0.00001622,-0.00007025,0.00007800,-0.00011221,0.00010460,-0.00025070,
 0.00044631,-0.02765326,-0.00503704,-0.00416029,0.08462759,0.07182172,0
 .00007722,-0.00011560,-0.00010782,-0.00006538,-0.00012230,0.00007084,0
 .00068462,-0.00067137,-0.00044582,-0.00371664,0.00074110,-0.00628798,-
 0.02847645,-0.00960492,-0.00244217,-0.00021239,-0.00078228,0.00088769,
 -0.02214325,-0.00706673,-0.04956624,-0.00064305,-0.00031289,0.00088265
 ,0.00001306,-0.00061111,0.00055294,0.00004293,-0.00021616,-0.00022957,
 -0.00030786,0.00015608,0.00012301,0.00001326,0.00001848,0.00005736,0.0
 0001847,0.00003253,0.00005904,0.00000733,0.00008716,-0.00001999,0.0000
 1129,-0.00000030,0.00000212,0.00034827,-0.00009528,0.00020279,0.000205
 41,0.00062987,-0.00012057,0.00981198,0.00161821,0.00029339,0.02728392,
 0.00868142,0.05377528,-0.00023289,0.00036584,-0.00039083,-0.00003008,0
 .00006583,-0.00010598,0.00003125,0.00019555,-0.00013523,0.00126262,-0.
 00001490,0.00073654,0.00564088,-0.00739890,-0.00640520,0.00012340,0.00
 019740,0.00060511,-0.13983115,0.09100580,0.09275411,0.00025386,0.00023
 864,-0.00111500,-0.00018471,-0.00012868,0.00002927,-0.00165136,-0.0000
 7598,-0.00017377,-0.00006277,-0.00002830,0.00007601,0.00002381,-0.0000
 3894,0.00002986,-0.00015853,0.00061259,-0.00061594,0.00000793,-0.00001
 740,0.00000485,-0.00002011,-0.00003380,0.00001827,-0.00003362,-0.00018
 356,0.00005374,-0.00005366,0.00006629,0.00006817,0.00200387,-0.0025313
 1,-0.00298258,-0.01332805,0.01779079,0.01651555,0.14769706,0.00052314,
 -0.00053930,0.00080598,0.00000861,0.00006976,0.00000744,0.00001651,-0.
 00005758,-0.00027676,0.00005759,-0.00000153,-0.00039386,-0.00285248,0.
 00145274,0.00246761,-0.00026978,-0.00000481,0.00005902,0.09067345,-0.1
 3957845,-0.09165657,-0.00008996,0.00045530,0.00051749,-0.00048231,-0.0
 0026870,-0.00030187,0.00032315,-0.00046376,-0.00030588,-0.00005010,-0.
 00000562,0.00008348,-0.00011046,0.00004025,-0.00002299,0.00067027,-0.0
 0081598,0.00081391,-0.00003361,-0.00000219,-0.00000865,-0.00000541,-0.
 00003370,0.00001579,-0.00005099,0.00010441,-0.00019916,-0.00011066,-0.
 00001382,-0.00012052,0.01749915,-0.01256855,-0.01758673,-0.00602769,0.
 00688181,0.00732718,-0.10009816,0.14376396,-0.00018930,0.00017111,-0.0
 0073247,-0.00014171,-0.00001547,0.00008659,-0.00035830,-0.00043390,-0.
 00060418,0.00095630,0.00070380,0.00146478,0.01979722,-0.01740655,-0.01
 586249,0.00051081,-0.00111617,0.00115802,0.09054921,-0.09047398,-0.140
 24332,-0.00326546,0.00082268,-0.00583692,-0.00037611,-0.00005143,0.000
 08726,0.00033417,-0.00041085,-0.00044290,-0.00011378,0.00006196,0.0000
 6248,-0.00001233,-0.00000405,0.00040708,-0.00056950,0.00091090,0.00026
 253,0.00002789,0.00001963,-0.00000971,0.00009560,0.00003539,0.00008662
 ,-0.00001080,-0.00012998,0.00019638,0.00004906,0.00019880,0.00001160,-
 0.00730872,0.00569815,0.00657019,-0.00290069,0.00330078,0.00239884,-0.
 09849275,0.09810479,0.15068279,-0.00004955,-0.00012542,-0.00000597,0.0
 0004346,0.00000709,0.00000649,-0.00003453,0.00021493,0.00007716,0.0019
 2556,0.00008771,0.00017133,0.00521613,0.00097485,0.02202040,0.00043475
 ,-0.00098648,0.00056685,-0.00267461,0.00217355,0.00192776,-0.07480236,
 -0.00326670,-0.08317133,0.00002764,-0.00028201,0.00018937,0.00005687,0
 .00000182,-0.00000363,0.00005176,-0.00003463,-0.00002352,0.00000832,-0
 .00000932,-0.00001855,0.00003395,-0.00003272,0.00000023,0.00000098,-0.
 00001766,-0.00000594,0.00000130,-0.00000891,-0.00001239,0.00007761,0.0
 0008837,-0.00025641,0.00003364,0.00004778,-0.00000419,-0.00007906,0.00
 000727,-0.00012267,0.00022958,0.00013916,0.00003086,0.00044055,0.00010
 198,0.00124012,0.07628810,0.00003488,0.00009046,0.00025218,0.00002342,
 0.00001110,-0.00002329,-0.00003116,-0.00002774,0.00010301,-0.00088255,
 0.00054766,0.00099525,-0.00640015,-0.00177167,-0.01433276,-0.00061667,
 0.00066316,-0.00146602,0.00206815,-0.00127283,-0.00134168,-0.00197298,
 -0.04973259,-0.00667404,0.00004810,-0.00004371,-0.00040903,-0.00002355
 ,-0.00001399,-0.00000171,0.00002191,-0.00002580,0.00000190,-0.00000652
 ,-0.00000447,-0.00000153,-0.00010057,0.00006260,0.00002598,0.00000167,
 -0.00000565,0.00000973,0.00000178,0.00000145,0.00001188,0.00037289,-0.
 00086578,0.00017274,0.00011360,-0.00003615,-0.00003849,0.00005382,0.00
 016231,-0.00026408,0.00019705,-0.00007828,0.00022142,0.00005265,0.0003
 9380,-0.00087787,0.00043405,0.04782524,0.00007008,-0.00009305,0.000335
 46,-0.00003809,0.00002073,-0.00006969,0.00003023,0.00009795,0.00003111
 ,-0.00124598,-0.00085121,0.00122751,-0.00665473,0.00042072,-0.01718716
 ,-0.00024131,0.00139631,0.00035654,0.00378714,-0.00281983,-0.00161664,
 -0.07971493,-0.00862989,-0.29181131,0.00030141,0.00104283,0.00020976,-
 0.00005309,-0.00002533,0.00000190,0.00003450,-0.00004060,-0.00004327,0
 .00007874,-0.00004931,0.00000619,-0.00011084,0.00011449,0.00008148,0.0
 0001577,0.00000770,0.00001190,0.00000759,-0.00000106,0.00002223,-0.000
 06066,-0.00050970,0.00062383,0.00000708,0.00014236,0.00012998,-0.00002
 882,0.00005275,0.00023369,0.00001442,0.00007272,0.00045425,-0.00028903
 ,0.00009946,-0.00127104,0.08495761,0.01113649,0.31260093,0.00022657,0.
 00005624,0.00001514,0.00008094,-0.00020641,0.00004077,0.00029908,-0.00
 127064,0.00015415,-0.00376753,0.00262204,0.00297522,-0.01749740,-0.011
 32976,-0.00313306,0.00068933,-0.00122722,-0.00043300,0.00029561,-0.000
 27190,-0.00101499,-0.25520012,-0.11395555,-0.00805610,0.00007515,0.000
 53413,-0.00031599,-0.00027547,0.00012199,-0.00005644,-0.00020917,0.000
 22336,0.00014888,0.00000939,0.00001562,0.00000764,0.00003929,-0.000059
 56,-0.00001248,0.00001552,0.00009681,0.00001099,0.00001055,0.00001975,
 -0.00002007,-0.00003352,0.00013439,-0.00012614,0.00015644,0.00066980,0
 .00007844,0.00006297,0.00007844,-0.00008837,0.00052940,0.00003069,0.00
 038084,0.00031677,0.00024201,-0.00001413,-0.00562802,-0.00278551,0.001
 31316,0.27358116,-0.00007149,0.00027639,0.00003208,0.00003452,0.000143
 30,0.00002024,0.00041892,0.00054009,-0.00002831,0.00339977,-0.00295384
 ,-0.00191649,0.01511476,0.00659658,0.00037598,0.00093031,0.00022745,-0
 .00004049,-0.00005446,0.00023837,0.00039664,-0.11690902,-0.11223814,-0
 .00415942,-0.00208332,0.00059780,0.00068779,0.00002531,-0.00001593,0.0
 0000740,0.00009211,-0.00007991,-0.00004152,-0.00007712,0.00005535,0.00
 002123,-0.00003060,0.00000350,0.00002474,-0.00002780,-0.00002131,-0.00
 000401,0.00000811,-0.00001397,0.00000185,-0.00015279,0.00008412,0.0001
 8611,0.00028330,-0.00033338,-0.00027465,-0.00001710,0.00004839,-0.0000
 3971,0.00001912,0.00008590,-0.00008992,0.00002886,-0.00001735,0.000213
 68,0.00127803,-0.00035144,0.00025033,0.12295488,0.11690007,-0.00002006
 ,0.00011560,-0.00016187,-0.00001376,0.00010322,-0.00003877,0.00006002,
 0.00078466,0.00008346,0.00297995,-0.00173875,-0.00101082,0.01434176,0.
 00971078,0.00006898,-0.00020940,0.00068356,0.00046550,0.00043498,0.000
 48178,0.00017749,-0.01038387,-0.00534517,-0.04945193,0.00055619,-0.000
 20756,0.00025521,0.00004887,-0.00003679,0.00004768,0.00017262,-0.00016
 671,-0.00010309,-0.00004733,0.00001009,0.00000904,0.00002197,-0.000002
 97,-0.00000884,-0.00000598,-0.00004102,0.00000028,-0.00000358,-0.00000
 925,0.00001362,-0.00013406,-0.00008782,-0.00005103,-0.00013238,-0.0002
 6230,0.00006934,0.00006365,-0.00007828,-0.00000471,0.00017552,-0.00027
 295,-0.00090923,-0.00023642,-0.00006957,0.00021102,-0.02529212,-0.0147
 0848,0.00234226,0.00746198,0.00741219,0.04792499,0.00057788,0.00119563
 ,-0.00026704,0.00025505,-0.00003213,0.00000086,-0.00033639,0.00010615,
 -0.00024422,0.00115440,0.00090552,-0.00020529,-0.00241365,0.02033162,-
 0.00839079,-0.00314016,0.00109675,0.00240667,0.00056767,-0.00044684,-0
 .00127608,-0.05019910,0.03150720,-0.01207875,-0.00084491,-0.00148480,0
 .00069624,0.00016610,-0.00008920,0.00003393,0.00004680,-0.00007392,-0.
 00002028,-0.00037606,0.00022301,0.00009701,-0.00003500,0.00000033,0.00
 005988,-0.00003890,-0.00007315,0.00001354,-0.00000293,-0.00002302,-0.0
 0000427,-0.00013365,-0.00017685,0.00022439,0.00012955,0.00023021,0.000
 11555,0.00012058,-0.00015889,0.00054949,-0.00001353,-0.00010997,0.0000
 7554,-0.00013870,-0.00016680,-0.00012722,-0.00163176,0.00940945,-0.002
 18131,0.00629554,-0.02521469,0.01011478,0.05000855,-0.00048585,-0.0007
 8183,0.00053930,-0.00016422,-0.00009229,-0.00009771,0.00003892,0.00009
 240,0.00008366,-0.00035738,-0.00188397,-0.00043265,0.00095537,-0.01402
 712,0.00579499,0.00325917,-0.00046888,-0.00232209,-0.00031892,0.000645
 83,0.00096930,0.03468860,-0.29095495,0.08656175,-0.00357809,0.00146541
 ,0.00067715,-0.00004718,0.00003378,-0.00000876,-0.00000125,0.00003544,
 -0.00002431,0.00033407,-0.00020377,-0.00011615,0.00006955,-0.00001679,
 -0.00008754,0.00007768,0.00005539,-0.00000258,-0.00000394,0.00001400,0
 .00001886,-0.00005216,0.00023234,-0.00008407,-0.00012760,0.00021394,-0
 .00001845,-0.00000948,0.00020518,-0.00062647,0.00002963,-0.00004975,-0
 .00007914,0.00000610,0.00032534,0.00006034,-0.00075835,0.00444308,-0.0
 0190841,0.00330442,-0.00981137,0.00371227,-0.03690859,0.31048312,-0.00
 010151,-0.00100824,0.00079821,-0.00003678,0.00000385,-0.00008305,0.000
 02095,-0.00017781,0.00013681,-0.00073384,0.00053038,0.00044121,0.00118
 726,-0.01832848,0.00549874,0.00293474,-0.00096972,-0.00195563,-0.00006
 333,-0.00095497,0.00109478,-0.01363415,0.08920648,-0.08140807,0.001110
 74,0.00003972,-0.00064665,-0.00003097,0.00001382,0.00002691,-0.0000094
 3,0.00001698,-0.00002493,0.00033211,-0.00021634,-0.00006742,-0.0001139
 5,0.00009402,-0.00001373,0.00004879,0.00001040,0.00001483,0.00000458,0
 .00000815,0.00002022,0.00009426,-0.00014989,0.00036333,0.00001151,0.00
 021129,-0.00003024,0.00036645,-0.00002965,-0.00048835,-0.00018859,0.00
 004744,0.00004216,-0.00007458,0.00011145,0.00020390,-0.00222966,0.0271
 6982,-0.00677101,0.00065744,-0.00301932,0.00005268,0.01043748,-0.09262
 196,0.08279263,-0.00000172,-0.00019704,-0.00009086,0.00010407,0.000439
 49,-0.00048256,-0.00777208,0.00259885,-0.00139674,-0.00006295,-0.00065
 046,0.00261247,0.00058017,0.00039843,-0.00007017,0.00005963,0.00009421
 ,-0.00008120,-0.00016930,-0.00037859,-0.00027908,-0.00009918,-0.000109
 80,-0.00005207,0.00002593,0.00014410,-0.00027334,-0.29264347,0.0780121
 4,0.02522378,0.00030891,-0.00013739,-0.00144974,-0.00001839,-0.0000360
 7,0.00009808,0.00001718,0.00017187,0.00012490,0.00020413,-0.00047947,0
 .00012106,0.00023228,-0.00016804,0.00000327,-0.00000396,-0.00000892,0.
 00004483,-0.00001486,-0.00005590,0.00000228,0.00004151,0.00000374,0.00
 002337,-0.00013593,0.00007850,0.00006953,-0.00003004,0.00021798,0.0002
 3168,0.00000807,0.00000829,0.00002355,-0.00007389,0.00000651,0.0000222
 0,0.00002933,0.00000092,0.00000095,0.31070130,-0.00005968,-0.00020164,
 -0.00011731,-0.00061397,0.00010240,0.00009907,-0.00287834,-0.00078090,
 0.00138467,0.00043933,-0.00054408,-0.00019461,-0.00005498,-0.00021158,
 -0.00031469,0.00005269,0.00005729,-0.00000665,-0.00014651,-0.00021876,
 -0.00019678,0.00008616,0.00004563,0.00005276,0.00032067,0.00113273,-0.
 00037506,0.07768211,-0.07326048,-0.00839976,0.00015766,0.00011470,-0.0
 0038082,-0.00000278,0.00000250,0.00007691,0.00001464,0.00004694,0.0001
 0292,-0.00010462,-0.00025064,0.00044627,0.00007026,0.00007801,-0.00011
 221,0.00000127,-0.00000610,0.00001622,0.00001650,0.00000592,-0.0000041
 6,-0.00001871,0.00003841,-0.00000530,-0.00007850,0.00010851,0.00006336
 ,-0.00005747,0.00010808,0.00019085,-0.00001530,0.00000884,0.00002217,0
 .00002863,-0.00000861,-0.00001424,-0.00000526,0.00000260,-0.00000133,-
 0.08463697,0.07182818,-0.00007722,-0.00011560,-0.00010782,0.00021235,-
 0.00078229,0.00088767,0.02847591,-0.00960595,-0.00244127,0.00371687,0.
 00074094,-0.00628777,-0.00068461,-0.00067132,-0.00044585,0.00006538,-0
 .00012231,0.00007083,-0.00004295,-0.00021616,-0.00022958,0.00030786,0.
 00015607,0.00012301,-0.00001311,-0.00061110,0.00055293,0.02213544,-0.0
 0706515,-0.04956479,0.00064302,-0.00031292,0.00088263,-0.00001326,0.00
 001847,0.00005736,-0.00001847,0.00003254,0.00005904,-0.00020540,0.0006
 2986,-0.00012054,-0.00034827,-0.00009527,0.00020278,-0.00001129,-0.000
 00030,0.00000212,-0.00000733,0.00008716,-0.00001999,-0.00000054,-0.000
 02961,-0.00004757,-0.00006953,0.00006336,0.00019202,-0.00000823,0.0002
 2810,0.00020581,-0.00002602,0.00001447,0.00002622,0.00012328,-0.000030
 82,-0.00004626,-0.00006343,0.00000908,-0.00000319,-0.02727561,0.008679
 82,0.05377352,0.00018428,0.00003384,-0.00007030,-0.00026620,0.00027838
 ,0.00183523,-0.00133170,-0.00892666,0.00406071,0.00057090,-0.00125606,
 -0.00027010,-0.00022513,-0.00019197,0.00016500,0.00013616,-0.00002724,
 0.00003943,0.00021311,0.00018305,-0.00001613,0.00004326,0.00005244,0.0
 0000632,-0.00031703,0.00027222,0.00004757,-0.05008754,0.01924594,-0.00
 832081,-0.00023664,0.00045843,-0.00074106,-0.00001655,0.00000419,0.000
 07481,0.00011097,0.00019346,0.00009131,0.00021285,-0.00016874,-0.00008
 423,0.00020195,-0.00056358,0.00021756,-0.00002714,0.00004210,0.0000025
 6,-0.00001522,0.00003532,-0.00000626,-0.00016818,0.00003833,-0.0000231
 7,0.00004151,0.00001871,0.00000054,0.00016671,-0.00008331,0.00002073,-
 0.00000586,-0.00000310,-0.00000675,0.00003003,0.00000465,-0.00000695,-
 0.00003468,0.00001447,0.00000508,0.00129592,0.02765315,-0.00981185,0.0
 4741672,0.00019543,0.00004999,-0.00001405,-0.00012063,0.00101237,0.000
 62004,-0.00022991,-0.00213592,-0.00022941,0.00032487,-0.00109633,-0.00
 026739,0.00000384,-0.00007183,0.00017101,0.00004551,-0.00004509,-0.000
 02210,0.00006198,-0.00003242,-0.00002471,-0.00001766,0.00003931,-0.000
 03016,0.00056473,0.00119357,-0.00096856,0.01779757,-0.29568787,0.08032
 389,-0.00012282,0.00058363,-0.00044240,-0.00005043,-0.00004471,0.00005
 187,0.00010765,0.00017357,0.00005716,-0.00009770,0.00023290,-0.0001754
 9,-0.00011631,-0.00016652,0.00016008,-0.00002390,0.00002532,0.00001233
 ,-0.00004913,0.00001298,0.00000066,-0.00003832,0.00007879,0.00001276,-
 0.00000374,0.00003841,-0.00002961,0.00005221,-0.00003487,0.00006945,-0
 .00000173,-0.00000062,0.00000469,0.00000018,-0.00000078,0.00000497,-0.
 00000505,0.00000647,0.00001177,-0.00109880,-0.00503805,0.00161854,-0.0
 1978163,0.31305986,-0.00036355,-0.00018939,-0.00032296,0.00142006,-0.0
 0109975,-0.00606135,-0.00214448,0.03045134,-0.01035610,-0.00153297,0.0
 0196100,0.00202337,0.00029284,0.00007033,-0.00023595,-0.00008748,0.000
 06430,0.00008539,-0.00010988,0.00001016,0.00001194,-0.00004735,-0.0000
 5073,-0.00000478,-0.00043930,-0.00124635,0.00061319,-0.00686614,0.0766
 9224,-0.07186001,0.00048164,0.00111505,0.00122557,0.00014357,0.0001013
 6,0.00014756,0.00015066,0.00009983,0.00020364,0.00004127,-0.00036986,0
 .00009115,0.00042662,0.00175953,-0.00070822,-0.00004515,0.00000262,0.0
 0003036,0.00005989,-0.00005733,0.00000648,0.00002316,0.00001276,0.0000
 6208,-0.00002336,-0.00000530,-0.00004757,0.00013127,-0.00005312,-0.000
 01743,0.00000769,0.00000289,-0.00000776,-0.00003339,-0.00000991,0.0000
 0609,0.00003750,-0.00002644,-0.00000370,-0.00004962,-0.00415942,0.0002
 9307,0.00588321,-0.08655812,0.07851483,-0.00023295,-0.00036587,0.00039
 083,0.00012345,-0.00019735,-0.00060511,0.00564167,0.00739926,0.0064059
 5,0.00126268,0.00001482,-0.00073657,0.00003123,-0.00019554,0.00013524,
 -0.00003009,-0.00006583,0.00010598,-0.00165134,0.00007604,0.00017370,-
 0.00006277,0.00002830,-0.00007602,-0.00018470,0.00012868,-0.00002929,-
 0.13983258,-0.09100294,-0.09275785,0.00025371,-0.00023866,0.00111522,0
 .00002382,0.00003894,-0.00002987,-0.00015858,-0.00061257,0.00061593,-0
 .00005366,-0.00006629,-0.00006818,-0.00003361,0.00018357,-0.00005375,-
 0.00002011,0.00003380,-0.00001827,0.00000793,0.00001740,-0.00000485,0.
 00016671,-0.00005222,-0.00013126,-0.00003005,0.00005747,0.00000823,-0.
 00225600,0.00009054,0.00004320,0.00002236,-0.00001842,-0.00004043,0.00
 002314,-0.00000071,-0.00000525,-0.00000252,-0.00000003,-0.00000067,-0.
 01332806,-0.01779008,-0.01651577,0.00200296,0.00253058,0.00298177,0.14
 769873,-0.00052317,-0.00053962,0.00080602,0.00026978,-0.00000481,0.000
 05906,0.00285231,0.00145239,0.00246750,-0.00005763,-0.00000149,-0.0003
 9381,-0.00001657,-0.00005751,-0.00027672,-0.00000860,0.00006975,0.0000
 0743,-0.00032306,-0.00046369,-0.00030584,0.00005011,-0.00000562,0.0000
 8348,0.00048231,-0.00026873,-0.00030186,-0.09067058,-0.13957132,-0.091
 65576,0.00008994,0.00045530,0.00051746,0.00011046,0.00004026,-0.000022
 95,-0.00067025,-0.00081572,0.00081385,0.00011066,-0.00001382,-0.000120
 52,0.00005100,0.00010440,-0.00019916,0.00000541,-0.00003370,0.00001578
 ,0.00003361,-0.00000219,-0.00000865,0.00008331,-0.00003488,-0.00005312
 ,-0.00021797,0.00010807,0.00022808,-0.00009029,0.00080142,0.00034086,-
 0.00001636,0.00001509,0.00002850,0.00001413,-0.00000115,-0.00000851,-0
 .00000510,-0.00000459,-0.00000692,0.00602823,0.00688223,0.00732801,-0.
 01749917,-0.01256798,-0.01758743,0.10009468,0.14375613,0.00018932,0.00
 017139,-0.00073253,-0.00051087,-0.00111616,0.00115800,-0.01979727,-0.0
 1740560,-0.01586296,-0.00095628,0.00070383,0.00146474,0.00035833,-0.00
 043393,-0.00060417,0.00014168,-0.00001547,0.00008663,-0.00033429,-0.00
 041086,-0.00044301,0.00011377,0.00006196,0.00006248,0.00037610,-0.0000
 5145,0.00008726,-0.09055284,-0.09047342,-0.14024941,0.00326570,0.00082
 256,-0.00583678,0.00001232,-0.00000406,0.00040704,0.00056948,0.0009108
 7,0.00026252,-0.00004905,0.00019880,0.00001160,0.00001078,-0.00012998,
 0.00019638,-0.00009560,0.00003540,0.00008662,-0.00002789,0.00001963,-0
 .00000971,-0.00002072,0.00006946,-0.00001743,-0.00023169,0.00019088,0.
 00020581,-0.00004355,0.00034093,0.00089861,-0.00002487,0.00001660,0.00
 003895,0.00002218,-0.00001600,-0.00001607,-0.00002213,0.00001648,0.000
 00305,0.00290034,0.00330014,0.00239843,0.00730879,0.00569795,0.0065705
 1,0.09849698,0.09810388,0.15068957,-0.00004954,0.00012543,0.00000597,0
 .00043483,0.00098645,-0.00056690,0.00521683,-0.00097510,-0.02202022,0.
 00192556,-0.00008774,-0.00017128,-0.00003453,-0.00021493,-0.00007716,0
 .00004346,-0.00000710,-0.00000648,0.00005687,-0.00000183,0.00000363,0.
 00005176,0.00003463,0.00002353,0.00002763,0.00028197,-0.00018941,-0.00
 267459,-0.00217341,-0.00192785,-0.07480730,0.00326778,0.08317800,0.000
 00832,0.00000932,0.00001855,0.00003395,0.00003271,-0.00000023,0.000033
 63,-0.00004779,0.00000419,0.00007757,-0.00008839,0.00025640,0.00000130
 ,0.00000891,0.00001239,0.00000098,0.00001766,0.00000594,-0.00000586,0.
 00000173,-0.00000769,0.00000807,0.00001530,0.00002602,0.00002236,0.000
 01636,0.00002487,-0.00000584,-0.00000246,0.00001071,0.00002113,-0.0000
 0051,-0.00001420,-0.00001017,0.00000398,0.00000207,0.00022957,-0.00013
 918,-0.00003086,-0.00007906,-0.00000726,0.00012265,0.00044057,-0.00010
 198,-0.00124010,0.07629346,-0.00003488,0.00009045,0.00025218,0.0006167
 3,0.00066310,-0.00146599,0.00640033,-0.00177186,-0.01433170,0.00088247
 ,0.00054763,0.00099529,0.00003116,-0.00002773,0.00010302,-0.00002343,0
 .00001110,-0.00002329,0.00002355,-0.00001400,-0.00000171,-0.00002192,-
 0.00002580,0.00000190,-0.00004809,-0.00004372,-0.00040902,-0.00206805,
 -0.00127267,-0.00134167,0.00197397,-0.04973272,-0.00667677,0.00000652,
 -0.00000447,-0.00000153,0.00010056,0.00006259,0.00002598,-0.00011360,-
 0.00003614,-0.00003850,-0.00037293,-0.00086578,0.00017272,-0.00000178,
 0.00000145,0.00001188,-0.00000167,-0.00000565,0.00000972,0.00000310,-0
 .00000062,0.00000289,-0.00000829,0.00000884,0.00001447,0.00001842,0.00
 001509,0.00001660,0.00000246,0.00000363,0.00000193,-0.00000693,0.00000
 346,0.00000265,0.00000502,-0.00000116,0.00000004,-0.00019706,-0.000078
 27,0.00022141,-0.00005381,0.00016232,-0.00026408,-0.00005262,0.0003938
 1,-0.00087783,-0.00043531,0.04782522,-0.00007010,-0.00009304,0.0003354
 6,0.00024137,0.00139634,0.00035653,0.00665547,0.00042045,-0.01718767,0
 .00124597,-0.00085125,0.00122757,-0.00003023,0.00009794,0.00003111,0.0
 0003810,0.00002073,-0.00006969,0.00005309,-0.00002533,0.00000190,-0.00
 003450,-0.00004059,-0.00004327,-0.00030138,0.00104286,0.00020974,-0.00
 378728,-0.00281976,-0.00161682,0.07972151,-0.00863244,-0.29180613,-0.0
 0007874,-0.00004930,0.00000619,0.00011084,0.00011449,0.00008148,-0.000
 00708,0.00014236,0.00012998,0.00006062,-0.00050971,0.00062384,-0.00000
 759,-0.00000106,0.00002223,-0.00001577,0.00000770,0.00001190,0.0000067
 5,0.00000469,-0.00000776,-0.00002355,0.00002218,0.00002622,0.00004043,
 0.00002850,0.00003895,-0.00001071,0.00000193,0.00002423,-0.00001560,0.
 00001137,0.00001764,0.00000163,0.00000488,0.00000179,-0.00001442,0.000
 07271,0.00045424,0.00002882,0.00005275,0.00023370,0.00028909,0.0000994
 5,-0.00127107,-0.08496470,0.01113928,0.31259553,0.00057784,-0.00119566
 ,0.00026705,-0.00314017,-0.00109663,-0.00240680,-0.00241464,-0.0203316
 4,0.00839072,0.00115435,-0.00090575,0.00020529,-0.00033642,-0.00010613
 ,0.00024421,0.00025507,0.00003211,-0.00000085,0.00016612,0.00008920,-0
 .00003392,0.00004681,0.00007392,0.00002028,-0.00084461,0.00148506,-0.0
 0069604,0.00056765,0.00044688,0.00127611,-0.05020217,-0.03151922,0.012
 08305,-0.00037607,-0.00022300,-0.00009703,-0.00003501,-0.00000033,-0.0
 0005988,0.00012955,-0.00023021,-0.00011555,-0.00013363,0.00017687,-0.0
 0022441,-0.00000293,0.00002302,0.00000427,-0.00003889,0.00007315,-0.00
 001355,-0.00003469,0.00000505,-0.00003750,0.00002933,0.00000526,0.0000
 6344,-0.00000252,0.00000510,0.00002213,-0.00001017,-0.00000502,-0.0000
 0163,0.00003500,0.00000706,-0.00001589,-0.00003434,0.00002957,-0.00000
 046,-0.00001354,0.00010997,-0.00007554,0.00012062,0.00015890,-0.000549
 51,-0.00013870,0.00016682,0.00012721,-0.00163221,-0.00941010,0.0021813
 9,0.05001164,0.00048578,-0.00078181,0.00053930,-0.00325900,-0.00046872
 ,-0.00232210,-0.00095600,-0.01402626,0.00579463,0.00035730,-0.00188391
 ,-0.00043264,-0.00003892,0.00009241,0.00008365,0.00016421,-0.00009230,
 -0.00009770,0.00004718,0.00003377,-0.00000876,0.00000125,0.00003544,-0
 .00002431,0.00357813,0.00146502,0.00067731,0.00031890,0.00064580,0.000
 96927,-0.03470055,-0.29095279,0.08655990,-0.00033406,-0.00020375,-0.00
 011616,-0.00006955,-0.00001678,-0.00008754,0.00012761,0.00021395,-0.00
 001844,0.00005218,0.00023234,-0.00008407,0.00000394,0.00001399,0.00001
 886,-0.00007768,0.00005539,-0.00000258,-0.00001447,0.00000646,-0.00002
 644,-0.00000091,0.00000260,0.00000908,0.00000003,-0.00000459,0.0000164
 8,-0.00000398,-0.00000116,0.00000488,-0.00000061,0.00001030,-0.0000005
 7,-0.00002957,0.00003188,0.00000926,-0.00002963,-0.00004975,-0.0000791
 3,0.00000950,0.00020514,-0.00062647,-0.00000608,0.00032533,0.00006034,
 0.00075864,0.00444337,-0.00190845,0.03692151,0.31048078,0.00010146,-0.
 00100829,0.00079822,-0.00293483,-0.00096964,-0.00195581,-0.00118819,-0
 .01832915,0.00549895,0.00073388,0.00053030,0.00044124,-0.00002097,-0.0
 0017782,0.00013682,0.00003680,0.00000385,-0.00008305,0.00003097,0.0000
 1382,0.00002692,0.00000943,0.00001698,-0.00002493,-0.00111060,0.000039
 88,-0.00064698,0.00006328,-0.00095495,0.00109483,0.01363854,0.08920467
 ,-0.08140698,-0.00033213,-0.00021633,-0.00006743,0.00011395,0.00009402
 ,-0.00001373,-0.00001149,0.00021128,-0.00003024,-0.00009428,-0.0001498
 8,0.00036332,-0.00000458,0.00000815,0.00002023,-0.00004879,0.00001041,
 0.00001482,-0.00000508,0.00001177,-0.00000370,-0.00000095,-0.00000133,
 -0.00000319,0.00000067,-0.00000692,0.00000306,-0.00000207,0.00000004,0
 .00000179,-0.00000353,-0.00000026,-0.00000245,0.00000046,0.00000926,0.
 00000715,0.00018859,0.00004743,0.00004217,-0.00036642,-0.00002963,-0.0
 0048838,0.00007457,0.00011145,0.00020391,0.00223084,0.02716947,-0.0067
 7083,-0.01044219,-0.09262009,0.08279194,0.00022657,-0.00005625,-0.0000
 1513,0.00068933,0.00122719,0.00043302,-0.01749720,0.01133036,0.0031325
 4,-0.00376758,-0.00262195,-0.00297538,0.00029911,0.00127062,-0.0001541
 4,0.00008095,0.00020641,-0.00004076,-0.00027548,-0.00012198,0.00005643
 ,-0.00020917,-0.00022335,-0.00014889,0.00007522,-0.00053410,0.00031601
 ,0.00029561,0.00027188,0.00101500,-0.25519214,0.11396109,0.00804952,0.
 00000940,-0.00001562,-0.00000764,0.00003929,0.00005956,0.00001248,0.00
 015645,-0.00066981,-0.00007845,-0.00003353,-0.00013439,0.00012615,0.00
 001055,-0.00001975,0.00002007,0.00001552,-0.00009681,-0.00001099,0.000
 03003,-0.00000018,0.00003339,-0.00007389,-0.00002863,-0.00012328,0.000
 02314,-0.00001413,-0.00002218,0.00002113,0.00000693,0.00001560,-0.0001
 0789,0.00003342,0.00006678,0.00003500,0.00000061,0.00000353,0.00052940
 ,-0.00003070,-0.00038080,0.00006297,-0.00007844,0.00008838,0.00031675,
 -0.00024202,0.00001414,-0.00562874,0.00278618,-0.00131340,0.00629671,-
 0.00330515,-0.00065735,0.27357247,0.00007149,0.00027640,0.00003209,-0.
 00093030,0.00022745,-0.00004054,-0.01511383,0.00659670,0.00037539,-0.0
 0339968,-0.00295361,-0.00191649,-0.00041891,0.00054006,-0.00002831,-0.
 00003452,0.00014329,0.00002023,-0.00002530,-0.00001592,0.00000740,-0.0
 0009210,-0.00007990,-0.00004152,0.00208330,0.00059774,0.00068785,0.000
 05445,0.00023836,0.00039661,0.11691453,-0.11224680,-0.00415607,0.00007
 712,0.00005535,0.00002124,0.00003060,0.00000350,0.00002474,-0.00028332
 ,-0.00033331,-0.00027463,0.00015279,0.00008411,0.00018611,-0.00000811,
 -0.00001397,0.00000185,0.00002780,-0.00002130,-0.00000401,-0.00000465,
 -0.00000078,-0.00000991,-0.00000651,-0.00000861,-0.00003082,0.00000071
 ,-0.00000115,-0.00001600,0.00000051,0.00000346,0.00001136,-0.00003342,
 0.00003610,0.00002918,-0.00000706,0.00001030,-0.00000026,-0.00001914,0
 .00008590,-0.00008990,0.00001710,0.00004840,-0.00003971,-0.00002888,-0
 .00001734,0.00021368,-0.00127789,-0.00035147,0.00025033,0.02521423,-0.
 00981217,-0.00301851,-0.12296101,0.11690921,0.00002008,0.00011559,-0.0
 0016187,0.00020944,0.00068360,0.00046553,-0.01434197,0.00971169,0.0000
 6863,-0.00298010,-0.00173873,-0.00101101,-0.00005999,0.00078470,0.0000
 8345,0.00001377,0.00010322,-0.00003877,-0.00004888,-0.00003679,0.00004
 768,-0.00017263,-0.00016671,-0.00010310,-0.00055621,-0.00020754,0.0002
 5519,-0.00043496,0.00048180,0.00017751,0.01037726,-0.00534200,-0.04945
 136,0.00004733,0.00001008,0.00000904,-0.00002197,-0.00000297,-0.000008
 84,0.00013237,-0.00026231,0.00006935,0.00013406,-0.00008783,-0.0000510
 2,0.00000358,-0.00000926,0.00001362,0.00000598,-0.00004103,0.00000028,
 0.00000695,0.00000497,0.00000609,-0.00002221,-0.00001424,-0.00004626,0
 .00000525,-0.00000851,-0.00001607,0.00001420,0.00000265,0.00001764,-0.
 00006678,0.00002918,0.00005978,0.00001589,-0.00000057,-0.00000245,-0.0
 0017548,-0.00027295,-0.00090924,-0.00006365,-0.00007828,-0.00000471,0.
 00023642,-0.00006959,0.00021103,0.02529131,-0.01470934,0.00234300,-0.0
 1011441,0.00371252,0.00005235,-0.00745466,0.00740861,0.04792453\\0.,-0
 .00000126,-0.00000002,0.00000107,-0.00000022,0.00000159,0.00000002,-0.
 00000065,-0.00000090,0.,0.00000117,-0.00000043,-0.00000001,-0.00000065
 ,-0.00000090,-0.00000108,-0.00000022,0.00000159,-0.00000029,-0.0000009
 6,-0.00000136,-0.00000028,0.00000083,0.00000045,-0.00000001,0.00000119
 ,0.00000166,0.00000028,-0.00000096,-0.00000135,0.00000030,0.00000083,0
 .00000045,0.,0.00000130,0.00000102,0.,-0.00000033,0.00000222,-0.000000
 84,0.00000067,0.00000139,-0.00000002,0.00000092,-0.00000037,0.00000002
 ,0.00000092,-0.00000037,0.00000084,0.00000067,0.00000139,-0.00000003,-
 0.00000227,-0.00000034,0.00000113,-0.00000052,0.00000029,-0.00000072,-
 0.00000036,0.00000095,-0.00000073,0.00000091,-0.00000227,0.00000105,0.
 00000123,-0.00000053,-0.00000020,-0.00000062,-0.00000114,-0.00000113,-
 0.00000052,0.00000030,0.00000004,-0.00000227,-0.00000034,0.00000072,-0
 .00000036,0.00000095,0.00000072,0.00000091,-0.00000227,0.00000020,-0.0
 0000062,-0.00000114,-0.00000105,0.00000123,-0.00000053\\\@


 WHEN A MATHEMATICIAN ENGAGED IN INVESTIGATING
 PHYSICAL ACTIONS AND RESULTS HAS ARRIVED AT HIS
 CONCLUSIONS, MAY THEY NOT BE EXPRESSED IN COMMON
 LANGUAGE AS FULLY, CLEARLY, AND DEFINITELY AS IN
 MATHEMATICAL FORMULAE?
           - LETTER FROM M. FARADAY TO J.C. MAXWELL, 1857.
 Job cpu time:       0 days  0 hours 53 minutes 59.1 seconds.
 Elapsed time:       0 days  0 hours  1 minutes 57.2 seconds.
 File lengths (MBytes):  RWF=    404 Int=      0 D2E=      0 Chk=     24 Scr=      8
 Normal termination of Gaussian 16 at Wed Feb 28 21:03:52 2024.
