/tmp/slurmd/job36178419/slurm_script: line 73: warning: here-document at line 32 delimited by end-of-file (wanted `EOF')
 Entering Gaussian System, Link 0=g16
 Initial command:
 /software/gaussian-16RevA.03-el7-x86_64/g16/l1.exe "/project/depablo/riccardo/REDX/DMREF-Battery/monomers/QC/TEMPO/Gau-12490.inp" -scrdir="/project/depablo/riccardo/REDX/DMREF-Battery/monomers/QC/TEMPO/"
 Entering Link 1 = /software/gaussian-16RevA.03-el7-x86_64/g16/l1.exe PID=     12491.
  
 Copyright (c) 1988,1990,1992,1993,1995,1998,2003,2009,2016,
            Gaussian, Inc.  All Rights Reserved.
  
 This is part of the Gaussian(R) 16 program.  It is based on
 the Gaussian(R) 09 system (copyright 2009, Gaussian, Inc.),
 the Gaussian(R) 03 system (copyright 2003, Gaussian, Inc.),
 the Gaussian(R) 98 system (copyright 1998, Gaussian, Inc.),
 the Gaussian(R) 94 system (copyright 1995, Gaussian, Inc.),
 the Gaussian 92(TM) system (copyright 1992, Gaussian, Inc.),
 the Gaussian 90(TM) system (copyright 1990, Gaussian, Inc.),
 the Gaussian 88(TM) system (copyright 1988, Gaussian, Inc.),
 the Gaussian 86(TM) system (copyright 1986, Carnegie Mellon
 University), and the Gaussian 82(TM) system (copyright 1983,
 Carnegie Mellon University). Gaussian is a federally registered
 trademark of Gaussian, Inc.
  
 This software contains proprietary and confidential information,
 including trade secrets, belonging to Gaussian, Inc.
  
 This software is provided under written license and may be
 used, copied, transmitted, or stored only in accord with that
 written license.
  
 The following legend is applicable only to US Government
 contracts under FAR:
  
                    RESTRICTED RIGHTS LEGEND
  
 Use, reproduction and disclosure by the US Government is
 subject to restrictions as set forth in subparagraphs (a)
 and (c) of the Commercial Computer Software - Restricted
 Rights clause in FAR 52.227-19.
  
 Gaussian, Inc.
 340 Quinnipiac St., Bldg. 40, Wallingford CT 06492
  
  
 ---------------------------------------------------------------
 Warning -- This program may not be used in any manner that
 competes with the business of Gaussian, Inc. or will provide
 assistance to any competitor of Gaussian, Inc.  The licensee
 of this program is prohibited from giving any competitor of
 Gaussian, Inc. access to this program.  By using this program,
 the user acknowledges that Gaussian, Inc. is engaged in the
 business of creating and licensing software in the field of
 computational chemistry and represents and warrants to the
 licensee that it is not a competitor of Gaussian, Inc. and that
 it will not use this program in any manner prohibited above.
 ---------------------------------------------------------------
  

 Cite this work as:
 Gaussian 16, Revision A.03,
 M. J. Frisch, G. W. Trucks, H. B. Schlegel, G. E. Scuseria, 
 M. A. Robb, J. R. Cheeseman, G. Scalmani, V. Barone, 
 G. A. Petersson, H. Nakatsuji, X. Li, M. Caricato, A. V. Marenich, 
 J. Bloino, B. G. Janesko, R. Gomperts, B. Mennucci, H. P. Hratchian, 
 J. V. Ortiz, A. F. Izmaylov, J. L. Sonnenberg, D. Williams-Young, 
 F. Ding, F. Lipparini, F. Egidi, J. Goings, B. Peng, A. Petrone, 
 T. Henderson, D. Ranasinghe, V. G. Zakrzewski, J. Gao, N. Rega, 
 G. Zheng, W. Liang, M. Hada, M. Ehara, K. Toyota, R. Fukuda, 
 J. Hasegawa, M. Ishida, T. Nakajima, Y. Honda, O. Kitao, H. Nakai, 
 T. Vreven, K. Throssell, J. A. Montgomery, Jr., J. E. Peralta, 
 F. Ogliaro, M. J. Bearpark, J. J. Heyd, E. N. Brothers, K. N. Kudin, 
 V. N. Staroverov, T. A. Keith, R. Kobayashi, J. Normand, 
 K. Raghavachari, A. P. Rendell, J. C. Burant, S. S. Iyengar, 
 J. Tomasi, M. Cossi, J. M. Millam, M. Klene, C. Adamo, R. Cammi, 
 J. W. Ochterski, R. L. Martin, K. Morokuma, O. Farkas, 
 J. B. Foresman, and D. J. Fox, Gaussian, Inc., Wallingford CT, 2016.
 
 ******************************************
 Gaussian 16:  ES64L-G16RevA.03 25-Dec-2016
                28-Feb-2024 
 ******************************************
 %nprocshared=28
 Will use up to   28 processors via shared memory.
 %mem=16GB
 %Chk=TEMPO-cavity-in-THF-wB97XD.chk
 ----------------------------------------------------------------------
 #P wB97XD/Def2SVPP opt=(MaxCycles=500, RecalcFC=50) freq scrf=(pcm,sol
 vent=TetraHydroFuran) nosymm int(grid=ultrafine) scf=(xqc,tight)
 ----------------------------------------------------------------------
 1/6=500,10=4,18=20,19=15,26=6,38=1,71=50/1,3;
 2/9=110,12=2,15=1,17=6,18=5,40=1/2;
 3/5=43,7=202,11=2,25=1,30=1,70=2201,71=2,72=20,74=-58,75=-5,140=1/1,2,3;
 4//1;
 5/5=2,8=3,13=1,32=2,38=5,53=20/2,8;
 8/6=4,10=90,11=11/1;
 11/6=1,8=1,9=11,15=111,16=1,31=1/1,2,10;
 10/6=1,31=1/2;
 6/7=2,8=2,9=2,10=2,28=1/1;
 7/10=1,25=1,30=1/1,2,3,16;
 1/6=500,10=4,18=20,19=15,26=6,71=50/3(3);
 2/9=110,15=1/2;
 7/9=1,25=1,30=1,44=-1/16;
 99//99;
 2/9=110,15=1/2;
 3/5=43,7=202,11=2,25=1,30=1,70=2205,71=2,72=20,74=-58,75=-5,140=1/1,2,3;
 4/5=5,16=3,69=1/1;
 5/5=2,8=3,13=1,32=2,38=5,53=20/2,8;
 8/6=4,10=90,11=11/1;
 11/6=1,8=1,9=11,15=111,16=1,31=1/1,2,10;
 10/6=1,31=1/2;
 7/10=1,25=1,30=1/1,2,3,16;
 1/6=500,18=20,19=15,26=6,71=50/3(-8);
 2/9=110,15=1/2;
 6/7=2,8=2,9=2,10=2,19=2,28=1/1;
 7/9=1,25=1,30=1,44=-1/16;
 99/9=1/99;
 Leave Link    1 at Wed Feb 28 21:08:28 2024, MaxMem=  2147483648 cpu:               6.2 elap:               0.2
 (Enter /software/gaussian-16RevA.03-el7-x86_64/g16/l101.exe)
 ----------------
 Cavity TEMPO THF
 ----------------
 Symbolic Z-matrix:
 Charge =  0 Multiplicity = 2
 C                     0.00008   2.11697  -0.00154 
 C                    -1.23946   1.38506  -0.49767 
 C                    -1.3188   -0.07273  -0.02638 
 N                    -0.00004  -0.7462   -0.2164 
 C                     1.31878  -0.07283  -0.02642 
 C                     1.23956   1.38495  -0.4977 
 C                     1.7235   -0.16338   1.45173 
 C                     2.34246  -0.82618  -0.87577 
 O                    -0.00018  -2.00963  -0.08256 
 C                    -1.72353  -0.16331   1.45173 
 C                    -2.34241  -0.82608  -0.87583 
 H                     0.00012   3.14532  -0.37561 
 H                     0.00012   2.18712   1.09218 
 H                    -2.15481   1.89272  -0.1753 
 H                    -1.23924   1.39985  -1.59495 
 H                     1.23928   1.39973  -1.59499 
 H                     2.15496   1.89253  -0.17537 
 H                     1.64063  -1.19811   1.79257 
 H                     2.76216   0.1594    1.57032 
 H                     1.10104   0.46414   2.0938 
 H                     2.02956  -0.85247  -1.9231 
 H                     3.30867  -0.31649  -0.8132 
 H                     2.45873  -1.85257  -0.52702 
 H                    -2.76231   0.1591    1.57021 
 H                    -1.64031  -1.19798   1.79267 
 H                    -1.10135   0.4645    2.09377 
 H                    -2.02922  -0.85252  -1.92308 
 H                    -2.45888  -1.85243  -0.52702 
 H                    -3.30858  -0.31628  -0.81357 
 
 ITRead=  0  0  0  0  0  0  0  0  0  0  0  0  0  0  0  0  0  0  0  0
 ITRead=  0  0  0  0  0  0  0  0  0
 MicOpt= -1 -1 -1 -1 -1 -1 -1 -1 -1 -1 -1 -1 -1 -1 -1 -1 -1 -1 -1 -1
 MicOpt= -1 -1 -1 -1 -1 -1 -1 -1 -1
 NAtoms=     29 NQM=       29 NQMF=       0 NMMI=      0 NMMIF=      0
                NMic=       0 NMicF=      0.
                    Isotopes and Nuclear Properties:
 (Nuclear quadrupole moments (NQMom) in fm**2, nuclear magnetic moments (NMagM)
  in nuclear magnetons)

  Atom         1           2           3           4           5           6           7           8           9          10
 IAtWgt=          12          12          12          14          12          12          12          12          16          12
 AtmWgt=  12.0000000  12.0000000  12.0000000  14.0030740  12.0000000  12.0000000  12.0000000  12.0000000  15.9949146  12.0000000
 NucSpn=           0           0           0           2           0           0           0           0           0           0
 AtZEff=  -0.0000000  -0.0000000  -0.0000000  -0.0000000  -0.0000000  -0.0000000  -0.0000000  -0.0000000  -0.0000000  -0.0000000
 NQMom=    0.0000000   0.0000000   0.0000000   2.0440000   0.0000000   0.0000000   0.0000000   0.0000000   0.0000000   0.0000000
 NMagM=    0.0000000   0.0000000   0.0000000   0.4037610   0.0000000   0.0000000   0.0000000   0.0000000   0.0000000   0.0000000
 AtZNuc=   6.0000000   6.0000000   6.0000000   7.0000000   6.0000000   6.0000000   6.0000000   6.0000000   8.0000000   6.0000000

  Atom        11          12          13          14          15          16          17          18          19          20
 IAtWgt=          12           1           1           1           1           1           1           1           1           1
 AtmWgt=  12.0000000   1.0078250   1.0078250   1.0078250   1.0078250   1.0078250   1.0078250   1.0078250   1.0078250   1.0078250
 NucSpn=           0           1           1           1           1           1           1           1           1           1
 AtZEff=  -0.0000000  -0.0000000  -0.0000000  -0.0000000  -0.0000000  -0.0000000  -0.0000000  -0.0000000  -0.0000000  -0.0000000
 NQMom=    0.0000000   0.0000000   0.0000000   0.0000000   0.0000000   0.0000000   0.0000000   0.0000000   0.0000000   0.0000000
 NMagM=    0.0000000   2.7928460   2.7928460   2.7928460   2.7928460   2.7928460   2.7928460   2.7928460   2.7928460   2.7928460
 AtZNuc=   6.0000000   1.0000000   1.0000000   1.0000000   1.0000000   1.0000000   1.0000000   1.0000000   1.0000000   1.0000000

  Atom        21          22          23          24          25          26          27          28          29
 IAtWgt=           1           1           1           1           1           1           1           1           1
 AtmWgt=   1.0078250   1.0078250   1.0078250   1.0078250   1.0078250   1.0078250   1.0078250   1.0078250   1.0078250
 NucSpn=           1           1           1           1           1           1           1           1           1
 AtZEff=  -0.0000000  -0.0000000  -0.0000000  -0.0000000  -0.0000000  -0.0000000  -0.0000000  -0.0000000  -0.0000000
 NQMom=    0.0000000   0.0000000   0.0000000   0.0000000   0.0000000   0.0000000   0.0000000   0.0000000   0.0000000
 NMagM=    2.7928460   2.7928460   2.7928460   2.7928460   2.7928460   2.7928460   2.7928460   2.7928460   2.7928460
 AtZNuc=   1.0000000   1.0000000   1.0000000   1.0000000   1.0000000   1.0000000   1.0000000   1.0000000   1.0000000
 Leave Link  101 at Wed Feb 28 21:08:29 2024, MaxMem=  2147483648 cpu:              10.5 elap:               0.4
 (Enter /software/gaussian-16RevA.03-el7-x86_64/g16/l103.exe)

 GradGradGradGradGradGradGradGradGradGradGradGradGradGradGradGradGradGrad
 Berny optimization.
 Initialization pass.
                           ----------------------------
                           !    Initial Parameters    !
                           ! (Angstroms and Degrees)  !
 --------------------------                            --------------------------
 ! Name  Definition              Value          Derivative Info.                !
 --------------------------------------------------------------------------------
 ! R1    R(1,2)                  1.5226         calculate D2E/DX2 analytically  !
 ! R2    R(1,6)                  1.5226         calculate D2E/DX2 analytically  !
 ! R3    R(1,12)                 1.0943         calculate D2E/DX2 analytically  !
 ! R4    R(1,13)                 1.096          calculate D2E/DX2 analytically  !
 ! R5    R(2,3)                  1.5341         calculate D2E/DX2 analytically  !
 ! R6    R(2,14)                 1.0952         calculate D2E/DX2 analytically  !
 ! R7    R(2,15)                 1.0974         calculate D2E/DX2 analytically  !
 ! R8    R(3,4)                  1.4929         calculate D2E/DX2 analytically  !
 ! R9    R(3,10)                 1.5352         calculate D2E/DX2 analytically  !
 ! R10   R(3,11)                 1.5287         calculate D2E/DX2 analytically  !
 ! R11   R(4,5)                  1.4929         calculate D2E/DX2 analytically  !
 ! R12   R(4,9)                  1.2705         calculate D2E/DX2 analytically  !
 ! R13   R(5,6)                  1.5341         calculate D2E/DX2 analytically  !
 ! R14   R(5,7)                  1.5352         calculate D2E/DX2 analytically  !
 ! R15   R(5,8)                  1.5287         calculate D2E/DX2 analytically  !
 ! R16   R(6,16)                 1.0974         calculate D2E/DX2 analytically  !
 ! R17   R(6,17)                 1.0952         calculate D2E/DX2 analytically  !
 ! R18   R(7,18)                 1.0926         calculate D2E/DX2 analytically  !
 ! R19   R(7,19)                 1.0941         calculate D2E/DX2 analytically  !
 ! R20   R(7,20)                 1.0925         calculate D2E/DX2 analytically  !
 ! R21   R(8,21)                 1.0934         calculate D2E/DX2 analytically  !
 ! R22   R(8,22)                 1.0942         calculate D2E/DX2 analytically  !
 ! R23   R(8,23)                 1.0902         calculate D2E/DX2 analytically  !
 ! R24   R(10,24)                1.0941         calculate D2E/DX2 analytically  !
 ! R25   R(10,25)                1.0926         calculate D2E/DX2 analytically  !
 ! R26   R(10,26)                1.0925         calculate D2E/DX2 analytically  !
 ! R27   R(11,27)                1.0934         calculate D2E/DX2 analytically  !
 ! R28   R(11,28)                1.0902         calculate D2E/DX2 analytically  !
 ! R29   R(11,29)                1.0942         calculate D2E/DX2 analytically  !
 ! A1    A(2,1,6)              108.9916         calculate D2E/DX2 analytically  !
 ! A2    A(2,1,12)             109.9002         calculate D2E/DX2 analytically  !
 ! A3    A(2,1,13)             110.8529         calculate D2E/DX2 analytically  !
 ! A4    A(6,1,12)             109.9002         calculate D2E/DX2 analytically  !
 ! A5    A(6,1,13)             110.851          calculate D2E/DX2 analytically  !
 ! A6    A(12,1,13)            106.3195         calculate D2E/DX2 analytically  !
 ! A7    A(1,2,3)              113.5018         calculate D2E/DX2 analytically  !
 ! A8    A(1,2,14)             111.2029         calculate D2E/DX2 analytically  !
 ! A9    A(1,2,15)             108.6123         calculate D2E/DX2 analytically  !
 ! A10   A(3,2,14)             107.8676         calculate D2E/DX2 analytically  !
 ! A11   A(3,2,15)             108.6625         calculate D2E/DX2 analytically  !
 ! A12   A(14,2,15)            106.7527         calculate D2E/DX2 analytically  !
 ! A13   A(2,3,4)              110.1136         calculate D2E/DX2 analytically  !
 ! A14   A(2,3,10)             111.4373         calculate D2E/DX2 analytically  !
 ! A15   A(2,3,11)             109.4026         calculate D2E/DX2 analytically  !
 ! A16   A(4,3,10)             109.1967         calculate D2E/DX2 analytically  !
 ! A17   A(4,3,11)             107.3647         calculate D2E/DX2 analytically  !
 ! A18   A(10,3,11)            109.2325         calculate D2E/DX2 analytically  !
 ! A19   A(3,4,5)              124.1021         calculate D2E/DX2 analytically  !
 ! A20   A(3,4,9)              115.7913         calculate D2E/DX2 analytically  !
 ! A21   A(5,4,9)              115.7995         calculate D2E/DX2 analytically  !
 ! A22   A(4,5,6)              110.1136         calculate D2E/DX2 analytically  !
 ! A23   A(4,5,7)              109.1961         calculate D2E/DX2 analytically  !
 ! A24   A(4,5,8)              107.3722         calculate D2E/DX2 analytically  !
 ! A25   A(6,5,7)              111.4346         calculate D2E/DX2 analytically  !
 ! A26   A(6,5,8)              109.4015         calculate D2E/DX2 analytically  !
 ! A27   A(7,5,8)              109.2299         calculate D2E/DX2 analytically  !
 ! A28   A(1,6,5)              113.502          calculate D2E/DX2 analytically  !
 ! A29   A(1,6,16)             108.6117         calculate D2E/DX2 analytically  !
 ! A30   A(1,6,17)             111.2034         calculate D2E/DX2 analytically  !
 ! A31   A(5,6,16)             108.6621         calculate D2E/DX2 analytically  !
 ! A32   A(5,6,17)             107.8672         calculate D2E/DX2 analytically  !
 ! A33   A(16,6,17)            106.7533         calculate D2E/DX2 analytically  !
 ! A34   A(5,7,18)             109.6467         calculate D2E/DX2 analytically  !
 ! A35   A(5,7,19)             109.7075         calculate D2E/DX2 analytically  !
 ! A36   A(5,7,20)             112.4449         calculate D2E/DX2 analytically  !
 ! A37   A(18,7,19)            108.5169         calculate D2E/DX2 analytically  !
 ! A38   A(18,7,20)            108.5078         calculate D2E/DX2 analytically  !
 ! A39   A(19,7,20)            107.9235         calculate D2E/DX2 analytically  !
 ! A40   A(5,8,21)             110.6355         calculate D2E/DX2 analytically  !
 ! A41   A(5,8,22)             109.2688         calculate D2E/DX2 analytically  !
 ! A42   A(5,8,23)             110.955          calculate D2E/DX2 analytically  !
 ! A43   A(21,8,22)            108.5825         calculate D2E/DX2 analytically  !
 ! A44   A(21,8,23)            108.3183         calculate D2E/DX2 analytically  !
 ! A45   A(22,8,23)            109.0301         calculate D2E/DX2 analytically  !
 ! A46   A(3,10,24)            109.7052         calculate D2E/DX2 analytically  !
 ! A47   A(3,10,25)            109.6485         calculate D2E/DX2 analytically  !
 ! A48   A(3,10,26)            112.4449         calculate D2E/DX2 analytically  !
 ! A49   A(24,10,25)           108.5174         calculate D2E/DX2 analytically  !
 ! A50   A(24,10,26)           107.9227         calculate D2E/DX2 analytically  !
 ! A51   A(25,10,26)           108.5087         calculate D2E/DX2 analytically  !
 ! A52   A(3,11,27)            110.6302         calculate D2E/DX2 analytically  !
 ! A53   A(3,11,28)            110.9578         calculate D2E/DX2 analytically  !
 ! A54   A(3,11,29)            109.271          calculate D2E/DX2 analytically  !
 ! A55   A(27,11,28)           108.3168         calculate D2E/DX2 analytically  !
 ! A56   A(27,11,29)           108.5837         calculate D2E/DX2 analytically  !
 ! A57   A(28,11,29)           109.0306         calculate D2E/DX2 analytically  !
 ! D1    D(6,1,2,3)             59.1684         calculate D2E/DX2 analytically  !
 ! D2    D(6,1,2,14)          -178.9911         calculate D2E/DX2 analytically  !
 ! D3    D(6,1,2,15)           -61.8052         calculate D2E/DX2 analytically  !
 ! D4    D(12,1,2,3)           179.6608         calculate D2E/DX2 analytically  !
 ! D5    D(12,1,2,14)          -58.4987         calculate D2E/DX2 analytically  !
 ! D6    D(12,1,2,15)           58.6873         calculate D2E/DX2 analytically  !
 ! D7    D(13,1,2,3)           -63.1019         calculate D2E/DX2 analytically  !
 ! D8    D(13,1,2,14)           58.7386         calculate D2E/DX2 analytically  !
 ! D9    D(13,1,2,15)          175.9246         calculate D2E/DX2 analytically  !
 ! D10   D(2,1,6,5)            -59.1686         calculate D2E/DX2 analytically  !
 ! D11   D(2,1,6,16)            61.8041         calculate D2E/DX2 analytically  !
 ! D12   D(2,1,6,17)           178.9907         calculate D2E/DX2 analytically  !
 ! D13   D(12,1,6,5)          -179.6611         calculate D2E/DX2 analytically  !
 ! D14   D(12,1,6,16)          -58.6883         calculate D2E/DX2 analytically  !
 ! D15   D(12,1,6,17)           58.4983         calculate D2E/DX2 analytically  !
 ! D16   D(13,1,6,5)            63.1028         calculate D2E/DX2 analytically  !
 ! D17   D(13,1,6,16)         -175.9245         calculate D2E/DX2 analytically  !
 ! D18   D(13,1,6,17)          -58.7379         calculate D2E/DX2 analytically  !
 ! D19   D(1,2,3,4)            -46.0226         calculate D2E/DX2 analytically  !
 ! D20   D(1,2,3,10)            75.3089         calculate D2E/DX2 analytically  !
 ! D21   D(1,2,3,11)          -163.7949         calculate D2E/DX2 analytically  !
 ! D22   D(14,2,3,4)          -169.7025         calculate D2E/DX2 analytically  !
 ! D23   D(14,2,3,10)          -48.3711         calculate D2E/DX2 analytically  !
 ! D24   D(14,2,3,11)           72.5251         calculate D2E/DX2 analytically  !
 ! D25   D(15,2,3,4)            74.9227         calculate D2E/DX2 analytically  !
 ! D26   D(15,2,3,10)         -163.7459         calculate D2E/DX2 analytically  !
 ! D27   D(15,2,3,11)          -42.8496         calculate D2E/DX2 analytically  !
 ! D28   D(2,3,4,5)             36.1323         calculate D2E/DX2 analytically  !
 ! D29   D(2,3,4,9)           -168.23           calculate D2E/DX2 analytically  !
 ! D30   D(10,3,4,5)           -86.527          calculate D2E/DX2 analytically  !
 ! D31   D(10,3,4,9)            69.1107         calculate D2E/DX2 analytically  !
 ! D32   D(11,3,4,5)           155.1574         calculate D2E/DX2 analytically  !
 ! D33   D(11,3,4,9)           -49.2049         calculate D2E/DX2 analytically  !
 ! D34   D(2,3,10,24)           68.5195         calculate D2E/DX2 analytically  !
 ! D35   D(2,3,10,25)         -172.3973         calculate D2E/DX2 analytically  !
 ! D36   D(2,3,10,26)          -51.5874         calculate D2E/DX2 analytically  !
 ! D37   D(4,3,10,24)         -169.6167         calculate D2E/DX2 analytically  !
 ! D38   D(4,3,10,25)          -50.5335         calculate D2E/DX2 analytically  !
 ! D39   D(4,3,10,26)           70.2763         calculate D2E/DX2 analytically  !
 ! D40   D(11,3,10,24)         -52.4763         calculate D2E/DX2 analytically  !
 ! D41   D(11,3,10,25)          66.607          calculate D2E/DX2 analytically  !
 ! D42   D(11,3,10,26)        -172.5832         calculate D2E/DX2 analytically  !
 ! D43   D(2,3,11,27)           62.8269         calculate D2E/DX2 analytically  !
 ! D44   D(2,3,11,28)         -176.9218         calculate D2E/DX2 analytically  !
 ! D45   D(2,3,11,29)          -56.6693         calculate D2E/DX2 analytically  !
 ! D46   D(4,3,11,27)          -56.6541         calculate D2E/DX2 analytically  !
 ! D47   D(4,3,11,28)           63.5971         calculate D2E/DX2 analytically  !
 ! D48   D(4,3,11,29)         -176.1503         calculate D2E/DX2 analytically  !
 ! D49   D(10,3,11,27)        -174.9465         calculate D2E/DX2 analytically  !
 ! D50   D(10,3,11,28)         -54.6953         calculate D2E/DX2 analytically  !
 ! D51   D(10,3,11,29)          65.5573         calculate D2E/DX2 analytically  !
 ! D52   D(3,4,5,6)            -36.1324         calculate D2E/DX2 analytically  !
 ! D53   D(3,4,5,7)             86.5231         calculate D2E/DX2 analytically  !
 ! D54   D(3,4,5,8)           -155.1605         calculate D2E/DX2 analytically  !
 ! D55   D(9,4,5,6)            168.2317         calculate D2E/DX2 analytically  !
 ! D56   D(9,4,5,7)            -69.1128         calculate D2E/DX2 analytically  !
 ! D57   D(9,4,5,8)             49.2036         calculate D2E/DX2 analytically  !
 ! D58   D(4,5,6,1)             46.0226         calculate D2E/DX2 analytically  !
 ! D59   D(4,5,6,16)           -74.9218         calculate D2E/DX2 analytically  !
 ! D60   D(4,5,6,17)           169.7032         calculate D2E/DX2 analytically  !
 ! D61   D(7,5,6,1)            -75.3062         calculate D2E/DX2 analytically  !
 ! D62   D(7,5,6,16)           163.7494         calculate D2E/DX2 analytically  !
 ! D63   D(7,5,6,17)            48.3744         calculate D2E/DX2 analytically  !
 ! D64   D(8,5,6,1)            163.8034         calculate D2E/DX2 analytically  !
 ! D65   D(8,5,6,16)            42.8589         calculate D2E/DX2 analytically  !
 ! D66   D(8,5,6,17)           -72.5161         calculate D2E/DX2 analytically  !
 ! D67   D(4,5,7,18)            50.5605         calculate D2E/DX2 analytically  !
 ! D68   D(4,5,7,19)           169.6435         calculate D2E/DX2 analytically  !
 ! D69   D(4,5,7,20)           -70.247          calculate D2E/DX2 analytically  !
 ! D70   D(6,5,7,18)           172.422          calculate D2E/DX2 analytically  !
 ! D71   D(6,5,7,19)           -68.495          calculate D2E/DX2 analytically  !
 ! D72   D(6,5,7,20)            51.6146         calculate D2E/DX2 analytically  !
 ! D73   D(8,5,7,18)           -66.5872         calculate D2E/DX2 analytically  !
 ! D74   D(8,5,7,19)            52.4958         calculate D2E/DX2 analytically  !
 ! D75   D(8,5,7,20)           172.6054         calculate D2E/DX2 analytically  !
 ! D76   D(4,5,8,21)            56.6691         calculate D2E/DX2 analytically  !
 ! D77   D(4,5,8,22)           176.1657         calculate D2E/DX2 analytically  !
 ! D78   D(4,5,8,23)           -63.5856         calculate D2E/DX2 analytically  !
 ! D79   D(6,5,8,21)           -62.8156         calculate D2E/DX2 analytically  !
 ! D80   D(6,5,8,22)            56.681          calculate D2E/DX2 analytically  !
 ! D81   D(6,5,8,23)           176.9297         calculate D2E/DX2 analytically  !
 ! D82   D(7,5,8,21)           174.9636         calculate D2E/DX2 analytically  !
 ! D83   D(7,5,8,22)           -65.5398         calculate D2E/DX2 analytically  !
 ! D84   D(7,5,8,23)            54.7089         calculate D2E/DX2 analytically  !
 --------------------------------------------------------------------------------
 Trust Radius=3.00D-01 FncErr=5.00D-06 GrdErr=5.00D-06 EigMax=2.50D+02 EigMin=1.00D-04
 Number of steps in this run=    174 maximum allowed number of steps=    174.
 Step   0 in ReCalcFC=50 IGetFC= 4 compute analytic Hessian.
 GradGradGradGradGradGradGradGradGradGradGradGradGradGradGradGradGradGrad

 Leave Link  103 at Wed Feb 28 21:08:29 2024, MaxMem=  2147483648 cpu:               1.6 elap:               0.1
 (Enter /software/gaussian-16RevA.03-el7-x86_64/g16/l202.exe)
                          Input orientation:                          
 ---------------------------------------------------------------------
 Center     Atomic      Atomic             Coordinates (Angstroms)
 Number     Number       Type             X           Y           Z
 ---------------------------------------------------------------------
      1          6           0        0.000081    2.116974   -0.001542
      2          6           0       -1.239464    1.385061   -0.497667
      3          6           0       -1.318795   -0.072730   -0.026376
      4          7           0       -0.000038   -0.746198   -0.216396
      5          6           0        1.318783   -0.072834   -0.026415
      6          6           0        1.239556    1.384950   -0.497702
      7          6           0        1.723500   -0.163376    1.451732
      8          6           0        2.342459   -0.826179   -0.875766
      9          8           0       -0.000180   -2.009627   -0.082563
     10          6           0       -1.723525   -0.163314    1.451725
     11          6           0       -2.342409   -0.826078   -0.875827
     12          1           0        0.000120    3.145316   -0.375612
     13          1           0        0.000119    2.187125    1.092183
     14          1           0       -2.154811    1.892722   -0.175299
     15          1           0       -1.239235    1.399851   -1.594950
     16          1           0        1.239280    1.399730   -1.594989
     17          1           0        2.154959    1.892528   -0.175369
     18          1           0        1.640633   -1.198109    1.792568
     19          1           0        2.762162    0.159396    1.570316
     20          1           0        1.101041    0.464138    2.093803
     21          1           0        2.029560   -0.852466   -1.923103
     22          1           0        3.308670   -0.316494   -0.813200
     23          1           0        2.458731   -1.852570   -0.527016
     24          1           0       -2.762308    0.159101    1.570205
     25          1           0       -1.640306   -1.197983    1.792666
     26          1           0       -1.101345    0.464501    2.093770
     27          1           0       -2.029217   -0.852515   -1.923079
     28          1           0       -2.458879   -1.852428   -0.527020
     29          1           0       -3.308584   -0.316279   -0.813566
 ---------------------------------------------------------------------
                    Distance matrix (angstroms):
                    1          2          3          4          5
     1  C    0.000000
     2  C    1.522599   0.000000
     3  C    2.556336   1.534133   0.000000
     4  N    2.871222   2.481442   1.492912   0.000000
     5  C    2.556336   2.981973   2.637578   1.492917   0.000000
     6  C    1.522607   2.479020   2.981969   2.481435   1.534119
     7  C    3.206583   3.870009   3.383575   2.468383   1.535224
     8  C    3.861755   4.226430   3.833266   2.434842   1.528672
     9  O    4.127396   3.637587   2.343816   1.270498   2.343925
    10  C    3.206636   2.536121   1.535185   2.468358   3.383596
    11  C    3.861760   2.499726   1.528688   2.434734   3.833172
    12  H    1.094265   2.156377   3.495329   3.894770   3.495325
    13  H    1.095972   2.169676   2.845638   3.211972   2.845620
    14  H    2.173486   1.095217   2.141052   3.407145   3.993924
    15  H    2.142223   1.097383   2.152963   2.835762   3.342538
    16  H    2.142225   2.710812   3.342519   2.835742   2.152949
    17  H    2.173497   3.447246   3.993921   3.407135   2.141034
    18  H    4.110963   4.495876   3.651472   2.632862   2.162991
    19  H    3.732551   4.668171   4.388339   3.412065   2.164907
    20  H    2.886945   3.611340   3.261747   2.830955   2.197971
    21  H    4.077837   4.210097   3.926454   2.653942   2.170358
    22  H    4.186564   4.866248   4.700207   3.389450   2.153613
    23  H    4.698762   4.915258   4.205731   2.714054   2.171991
    24  H    3.732887   2.845721   2.164843   3.411985   4.388427
    25  H    4.110838   3.475402   2.162979   2.632664   3.651195
    26  H    2.886891   2.753553   2.197936   2.831172   3.262044
    27  H    4.077771   2.768078   2.170310   2.653608   3.926110
    28  H    4.698804   3.459649   2.172041   2.714062   4.205745
    29  H    4.186570   2.697333   2.153658   3.389383   4.700149
                    6          7          8          9         10
     6  C    0.000000
     7  C    2.536101   0.000000
     8  C    2.499684   2.497932   0.000000
     9  O    3.637642   2.955296   2.741838   0.000000
    10  C    3.870043   3.447025   4.731684   2.955136   0.000000
    11  C    4.226357   4.731630   4.684868   2.741549   2.497954
    12  H    2.156385   4.154115   4.637831   5.163266   4.154172
    13  H    2.169660   2.936694   4.294110   4.358068   2.936798
    14  H    3.447246   4.681460   5.301746   4.458628   2.657160
    15  H    2.710826   4.528107   4.277963   3.930281   3.458359
    16  H    1.097387   3.458364   2.586302   3.930319   4.528111
    17  H    1.095215   2.657133   2.813731   4.458705   4.681513
    18  H    3.475398   1.092570   2.784043   2.620486   3.536175
    19  H    2.845525   1.094104   2.670361   3.881650   4.498844
    20  H    2.753721   1.092467   3.467618   3.474014   2.963804
    21  H    2.768015   3.458038   1.093395   2.974299   5.094118
    22  H    2.697347   2.768777   1.094192   3.788010   5.520538
    23  H    3.459593   2.703587   1.090240   2.503687   4.925471
    24  H    4.668390   4.498944   5.745624   3.881285   1.094102
    25  H    4.495657   3.535794   4.808449   2.620165   1.092569
    26  H    3.611478   2.964151   4.726921   3.474234   1.092466
    27  H    4.209849   5.093834   4.495454   2.973785   3.457998
    28  H    4.915272   4.925510   4.922160   2.503488   2.703569
    29  H    4.866161   5.520582   5.674342   3.787787   2.768999
                   11         12         13         14         15
    11  C    0.000000
    12  H    4.637847   0.000000
    13  H    4.294170   1.752870   0.000000
    14  H    2.813860   2.500569   2.517321   0.000000
    15  H    2.586289   2.463622   3.062104   1.759719   0.000000
    16  H    4.277840   2.463629   3.062091   3.711929   2.478515
    17  H    5.301677   2.500581   2.517302   4.309770   3.711939
    18  H    4.808676   5.124220   3.826439   5.275522   5.149594
    19  H    5.745557   4.509017   3.459650   5.498019   5.250601
    20  H    4.726596   3.807723   2.276830   4.217849   4.467589
    21  H    4.495731   4.742954   4.738111   5.300928   3.983169
    22  H    5.674354   4.808546   4.565644   5.927662   4.923455
    23  H    4.922022   5.571944   4.998571   5.952788   5.039214
    24  H    2.670200   4.509400   3.460114   2.534024   3.725241
    25  H    2.784262   5.124127   3.826307   3.700008   4.287836
    26  H    3.467613   3.807603   2.276803   2.880674   3.807959
    27  H    1.093401   4.742944   4.738082   3.256814   2.409335
    28  H    1.090241   5.571988   4.998648   3.773899   3.633913
    29  H    1.094196   4.808531   4.565789   2.572598   2.799619
                   16         17         18         19         20
    16  H    0.000000
    17  H    1.759727   0.000000
    18  H    4.287819   3.699911   0.000000
    19  H    3.725152   2.533744   1.774836   0.000000
    20  H    3.808100   2.881004   1.773406   1.768115   0.000000
    21  H    2.409271   3.256577   3.751925   3.710060   4.327947
    22  H    2.799820   2.572480   3.217082   2.491243   3.732784
    23  H    3.633880   3.773817   2.545206   2.922136   3.752219
    24  H    5.250745   5.498301   4.612738   5.524470   3.910584
    25  H    5.149401   5.275268   3.280939   4.612336   3.219987
    26  H    4.467675   4.218029   3.220782   3.910726   2.202386
    27  H    3.982879   5.300668   5.233858   6.015404   5.259984
    28  H    5.039193   5.952802   4.755483   5.975410   4.990814
    29  H    4.923248   5.927599   5.662535   6.539351   5.339161
                   21         22         23         24         25
    21  H    0.000000
    22  H    1.776309   0.000000
    23  H    1.770157   1.778715   0.000000
    24  H    6.015685   6.539387   5.975316   0.000000
    25  H    5.233950   5.662148   4.755156   1.774839   0.000000
    26  H    5.260441   5.339350   4.991140   1.768103   1.773414
    27  H    4.058777   5.478338   4.805287   3.709963   3.751981
    28  H    4.805732   5.975417   4.917610   2.921758   2.545448
    29  H    5.478535   6.617254   5.975301   2.491339   3.217608
                   26         27         28         29
    26  H    0.000000
    27  H    4.327881   0.000000
    28  H    3.752279   1.770146   0.000000
    29  H    3.732844   1.776330   1.778725   0.000000
 Symmetry turned off by external request.
 Stoichiometry    C9H18NO(2)
 Framework group  C1[X(C9H18NO)]
 Deg. of freedom    81
 Full point group                 C1      NOp   1
 Rotational constants (GHZ):           1.4907652           1.0713652           0.8609652
 Leave Link  202 at Wed Feb 28 21:08:29 2024, MaxMem=  2147483648 cpu:               3.5 elap:               0.2
 (Enter /software/gaussian-16RevA.03-el7-x86_64/g16/l301.exe)
 Standard basis: def2SVPP (5D, 7F)
 Ernie: Thresh=  0.10000D-02 Tol=  0.10000D-05 Strict=F.
   190 basis functions,   347 primitive gaussians,   201 cartesian basis functions
    44 alpha electrons       43 beta electrons
       nuclear repulsion energy       717.9437839131 Hartrees.
 IExCor= 4639 DFT=T Ex+Corr=wB97XD ExCW=0 ScaHFX=  1.000000
 ScaDFX=  1.000000  1.000000  1.000000  1.000000 ScalE2=  1.000000  1.000000
 IRadAn=      5 IRanWt=     -1 IRanGd=            0 ICorTp=0 IEmpDi=121
 HFx  wShort=  0.000000 wLong=  0.200000 cFull=  0.222036 cShort=  0.000000 cLong=  0.777964
 DFx  wShort=  0.000000 wLong=  0.200000 cFull=  0.000000 cShort=  0.000000 cLong=  1.000000
 NAtoms=   29 NActive=   29 NUniq=   29 SFac= 1.00D+00 NAtFMM=   60 NAOKFM=F Big=F
 Integral buffers will be    131072 words long.
 Raffenetti 2 integral format.
 Two-electron integral symmetry is turned off.
 R6Disp:  Grimme-D2 Dispersion energy=       -0.0257349246 Hartrees.
 Nuclear repulsion after empirical dispersion term =      717.9180489884 Hartrees.
 Force inversion solution in PCM.
 ------------------------------------------------------------------------------
 Polarizable Continuum Model (PCM)
 =================================
 Model                : PCM.
 Atomic radii         : UFF (Universal Force Field).
 Polarization charges : Total charges.
 Charge compensation  : None.
 Solution method      : Matrix inversion.
 Cavity type          : Scaled VdW (van der Waals Surface) (Alpha=1.100).
 Cavity algorithm     : GePol (No added spheres)
                        Default sphere list used, NSphG=   29.
                        Lebedev-Laikov grids with approx.  5.0 points / Ang**2.
                        Smoothing algorithm: York/Karplus (Gamma=1.0000).
                        Polarization charges: spherical gaussians, with
                                              point-specific exponents (IZeta= 3).
                        Self-potential: point-specific (ISelfS= 7).
                        Self-field    : sphere-specific E.n sum rule (ISelfD= 2).
 1st derivatives      : Analytical E(r).r(x)/FMM algorithm (CHGder, D1EAlg=3).
                        Cavity 1st derivative terms included.
 2nd derivatives      : Analytical E(r).r(xy)/FMM algorithm (CHGder, D2EAlg=3).
                        Cavity 2nd derivative terms included.
 Solvent              : TetraHydroFuran, Eps=   7.425700 Eps(inf)=   1.974025
 ------------------------------------------------------------------------------
 GePol: Number of generator spheres                  =      29
 GePol: Total number of spheres                      =      29
 GePol: Number of exposed spheres                    =      29 (100.00%)
 GePol: Number of points                             =    1746
 GePol: Average weight of points                     =       0.13
 GePol: Minimum weight of points                     =   0.10D-11
 GePol: Maximum weight of points                     =    0.20577
 GePol: Number of points with low weight             =     106
 GePol: Fraction of low-weight points (<1% of avg)   =       6.07%
 GePol: Cavity surface area                          =    235.143 Ang**2
 GePol: Cavity volume                                =    255.129 Ang**3
 Leave Link  301 at Wed Feb 28 21:08:29 2024, MaxMem=  2147483648 cpu:               2.9 elap:               0.1
 (Enter /software/gaussian-16RevA.03-el7-x86_64/g16/l302.exe)
 NPDir=0 NMtPBC=     1 NCelOv=     1 NCel=       1 NClECP=     1 NCelD=      1
         NCelK=      1 NCelE2=     1 NClLst=     1 CellRange=     0.0.
 One-electron integrals computed using PRISM.
   1 Symmetry operations used in ECPInt.
 ECPInt:  NShTT=    5253 NPrTT=   21107 LenC2=    5228 LenP2D=   16402.
 LDataN:  DoStor=T MaxTD1= 4 Len=   56
 NBasis=   190 RedAO= T EigKep=  1.00D-03  NBF=   190
 NBsUse=   190 1.00D-06 EigRej= -1.00D+00 NBFU=   190
 Precomputing XC quadrature grid using
 IXCGrd= 4 IRadAn=           5 IRanWt=          -1 IRanGd=           0 AccXCQ= 0.00D+00.
 Generated NRdTot=       0 NPtTot=           0 NUsed=           0 NTot=          32
 NSgBfM=   201   201   201   201   201 MxSgAt=    29 MxSgA2=    29.
 Leave Link  302 at Wed Feb 28 21:08:29 2024, MaxMem=  2147483648 cpu:               7.6 elap:               0.3
 (Enter /software/gaussian-16RevA.03-el7-x86_64/g16/l303.exe)
 DipDrv:  MaxL=1.
 Leave Link  303 at Wed Feb 28 21:08:30 2024, MaxMem=  2147483648 cpu:               2.5 elap:               0.1
 (Enter /software/gaussian-16RevA.03-el7-x86_64/g16/l401.exe)
 ExpMin= 1.22D-01 ExpMax= 2.27D+03 ExpMxC= 3.41D+02 IAcc=3 IRadAn=         5 AccDes= 0.00D+00
 Harris functional with IExCor= 4639 and IRadAn=       5 diagonalized for initial guess.
 HarFok:  IExCor= 4639 AccDes= 0.00D+00 IRadAn=         5 IDoV= 1 UseB2=F ITyADJ=14
 ICtDFT=  3500011 ScaDFX=  1.000000  1.000000  1.000000  1.000000
 FoFCou: FMM=F IPFlag=           0 FMFlag=      100000 FMFlg1=           0
         NFxFlg=           0 DoJE=T BraDBF=F KetDBF=T FulRan=T
         wScrn=  0.000000 ICntrl=       500 IOpCl=  0 I1Cent=   200000004 NGrid=           0
         NMat0=    1 NMatS0=      1 NMatT0=    0 NMatD0=    1 NMtDS0=    0 NMtDT0=    0
 Symmetry not used in FoFCou.
 Harris En= -461.002898799519    
 JPrj=0 DoOrth=F DoCkMO=F.
 Initial guess <Sx>= 0.0000 <Sy>= 0.0000 <Sz>= 0.5000 <S**2>= 0.7500 S= 0.5000
 Leave Link  401 at Wed Feb 28 21:08:30 2024, MaxMem=  2147483648 cpu:              16.9 elap:               0.6
 (Enter /software/gaussian-16RevA.03-el7-x86_64/g16/l502.exe)
 Two-electron integral symmetry not used.
 UHF open shell SCF:
 Using DIIS extrapolation, IDIIS=  1040.
 NGot=  2147483648 LenX=  2147395142 LenY=  2147354300
 Requested convergence on RMS density matrix=1.00D-08 within  32 cycles.
 Requested convergence on MAX density matrix=1.00D-06.
 Requested convergence on             energy=1.00D-06.
 No special actions if energy rises.
 Fock matrices will be formed incrementally for  20 cycles.

 Cycle   1  Pass 1  IDiag  1:
 FoFJK:  IHMeth= 1 ICntrl=       0 DoSepK=T KAlg= 0 I1Cent=           0 FoldK=F
 IRaf=         1 NMat=       1 IRICut=       1 DoRegI=T DoRafI=F ISym2E= 0 IDoP0=0 IntGTp=1.
 FoFCou: FMM=F IPFlag=           0 FMFlag=      100000 FMFlg1=           0
         NFxFlg=           0 DoJE=T BraDBF=F KetDBF=F FulRan=T
         wScrn=  0.000000 ICntrl=       500 IOpCl=  0 I1Cent=           0 NGrid=           0
         NMat0=    1 NMatS0=      1 NMatT0=    0 NMatD0=    1 NMtDS0=    0 NMtDT0=    0
 Symmetry not used in FoFCou.
 Inv3:  Mode=1 IEnd=     9145548.
 Iteration    1 A*A^-1 deviation from unit magnitude is 3.11D-15 for    378.
 Iteration    1 A*A^-1 deviation from orthogonality  is 2.04D-15 for   1644     58.
 Iteration    1 A^-1*A deviation from unit magnitude is 3.33D-15 for    382.
 Iteration    1 A^-1*A deviation from orthogonality  is 2.00D-15 for    797    254.
 E= -483.023031530256    
 DIIS: error= 3.10D-02 at cycle   1 NSaved=   1.
 NSaved= 1 IEnMin= 1 EnMin= -483.023031530256     IErMin= 1 ErrMin= 3.10D-02
 ErrMax= 3.10D-02  0.00D+00 EMaxC= 1.00D-01 BMatC= 1.19D+00 BMatP= 1.19D+00
 IDIUse=3 WtCom= 6.90D-01 WtEn= 3.10D-01
 Coeff-Com:  0.100D+01
 Coeff-En:   0.100D+01
 Coeff:      0.100D+01
 Gap=     0.511 Goal=   None    Shift=    0.000
 Gap=     0.317 Goal=   None    Shift=    0.000
 GapD=    0.317 DampG=1.000 DampE=0.500 DampFc=0.5000 IDamp=-1.
 Damping current iteration by 5.00D-01
 RMSDP=6.14D-03 MaxDP=1.82D-01              OVMax= 1.67D-01

 Cycle   2  Pass 1  IDiag  1:
 RMSU=  2.95D-03    CP:  9.68D-01
 E= -483.112079052286     Delta-E=       -0.089047522030 Rises=F Damp=T
 DIIS: error= 1.41D-02 at cycle   2 NSaved=   2.
 NSaved= 2 IEnMin= 2 EnMin= -483.112079052286     IErMin= 2 ErrMin= 1.41D-02
 ErrMax= 1.41D-02  0.00D+00 EMaxC= 1.00D-01 BMatC= 1.65D-01 BMatP= 1.19D+00
 IDIUse=3 WtCom= 8.59D-01 WtEn= 1.41D-01
 Coeff-Com: -0.211D+00 0.121D+01
 Coeff-En:   0.000D+00 0.100D+01
 Coeff:     -0.181D+00 0.118D+01
 Gap=     0.496 Goal=   None    Shift=    0.000
 Gap=     0.443 Goal=   None    Shift=    0.000
 RMSDP=2.33D-03 MaxDP=5.96D-02 DE=-8.90D-02 OVMax= 7.83D-02

 Cycle   3  Pass 1  IDiag  1:
 RMSU=  1.60D-03    CP:  9.45D-01  1.54D+00
 E= -483.196723725468     Delta-E=       -0.084644673182 Rises=F Damp=F
 DIIS: error= 8.15D-03 at cycle   3 NSaved=   3.
 NSaved= 3 IEnMin= 3 EnMin= -483.196723725468     IErMin= 3 ErrMin= 8.15D-03
 ErrMax= 8.15D-03  0.00D+00 EMaxC= 1.00D-01 BMatC= 3.23D-02 BMatP= 1.65D-01
 IDIUse=3 WtCom= 9.19D-01 WtEn= 8.15D-02
 Coeff-Com: -0.157D+00 0.375D+00 0.782D+00
 Coeff-En:   0.000D+00 0.000D+00 0.100D+01
 Coeff:     -0.144D+00 0.344D+00 0.800D+00
 Gap=     0.398 Goal=   None    Shift=    0.000
 Gap=     0.338 Goal=   None    Shift=    0.000
 RMSDP=7.45D-04 MaxDP=2.90D-02 DE=-8.46D-02 OVMax= 4.26D-02

 Cycle   4  Pass 1  IDiag  1:
 RMSU=  5.73D-04    CP:  9.42D-01  1.68D+00  8.77D-01
 E= -483.201487437056     Delta-E=       -0.004763711588 Rises=F Damp=F
 DIIS: error= 6.12D-03 at cycle   4 NSaved=   4.
 NSaved= 4 IEnMin= 4 EnMin= -483.201487437056     IErMin= 4 ErrMin= 6.12D-03
 ErrMax= 6.12D-03  0.00D+00 EMaxC= 1.00D-01 BMatC= 1.29D-02 BMatP= 3.23D-02
 IDIUse=3 WtCom= 9.39D-01 WtEn= 6.12D-02
 Coeff-Com: -0.705D-01 0.127D+00 0.467D+00 0.476D+00
 Coeff-En:   0.000D+00 0.000D+00 0.200D+00 0.800D+00
 Coeff:     -0.662D-01 0.119D+00 0.451D+00 0.496D+00
 Gap=     0.403 Goal=   None    Shift=    0.000
 Gap=     0.349 Goal=   None    Shift=    0.000
 RMSDP=3.31D-04 MaxDP=1.12D-02 DE=-4.76D-03 OVMax= 1.13D-02

 Cycle   5  Pass 1  IDiag  1:
 RMSU=  1.91D-04    CP:  9.39D-01  1.73D+00  9.57D-01  7.04D-01
 E= -483.203794409787     Delta-E=       -0.002306972731 Rises=F Damp=F
 DIIS: error= 1.04D-03 at cycle   5 NSaved=   5.
 NSaved= 5 IEnMin= 5 EnMin= -483.203794409787     IErMin= 5 ErrMin= 1.04D-03
 ErrMax= 1.04D-03  0.00D+00 EMaxC= 1.00D-01 BMatC= 1.49D-04 BMatP= 1.29D-02
 IDIUse=3 WtCom= 9.90D-01 WtEn= 1.04D-02
 Coeff-Com:  0.633D-02-0.167D-01-0.226D-02 0.508D-01 0.962D+00
 Coeff-En:   0.000D+00 0.000D+00 0.000D+00 0.000D+00 0.100D+01
 Coeff:      0.626D-02-0.165D-01-0.223D-02 0.503D-01 0.962D+00
 Gap=     0.402 Goal=   None    Shift=    0.000
 Gap=     0.349 Goal=   None    Shift=    0.000
 RMSDP=1.12D-04 MaxDP=4.06D-03 DE=-2.31D-03 OVMax= 7.91D-03

 Cycle   6  Pass 1  IDiag  1:
 RMSU=  4.71D-05    CP:  9.38D-01  1.75D+00  9.77D-01  8.05D-01  1.22D+00
 E= -483.203873692524     Delta-E=       -0.000079282737 Rises=F Damp=F
 DIIS: error= 3.95D-04 at cycle   6 NSaved=   6.
 NSaved= 6 IEnMin= 6 EnMin= -483.203873692524     IErMin= 6 ErrMin= 3.95D-04
 ErrMax= 3.95D-04  0.00D+00 EMaxC= 1.00D-01 BMatC= 6.06D-05 BMatP= 1.49D-04
 IDIUse=3 WtCom= 9.96D-01 WtEn= 3.95D-03
 Coeff-Com:  0.184D-01-0.353D-01-0.101D+00-0.101D+00 0.410D+00 0.809D+00
 Coeff-En:   0.000D+00 0.000D+00 0.000D+00 0.000D+00 0.000D+00 0.100D+01
 Coeff:      0.183D-01-0.351D-01-0.100D+00-0.101D+00 0.408D+00 0.810D+00
 Gap=     0.402 Goal=   None    Shift=    0.000
 Gap=     0.350 Goal=   None    Shift=    0.000
 RMSDP=6.79D-05 MaxDP=1.76D-03 DE=-7.93D-05 OVMax= 3.65D-03

 Cycle   7  Pass 1  IDiag  1:
 RMSU=  2.47D-05    CP:  9.38D-01  1.76D+00  9.91D-01  8.34D-01  1.44D+00
                    CP:  1.13D+00
 E= -483.203899628905     Delta-E=       -0.000025936381 Rises=F Damp=F
 DIIS: error= 1.32D-04 at cycle   7 NSaved=   7.
 NSaved= 7 IEnMin= 7 EnMin= -483.203899628905     IErMin= 7 ErrMin= 1.32D-04
 ErrMax= 1.32D-04  0.00D+00 EMaxC= 1.00D-01 BMatC= 5.17D-06 BMatP= 6.06D-05
 IDIUse=3 WtCom= 9.99D-01 WtEn= 1.32D-03
 Coeff-Com: -0.284D-02 0.586D-02 0.135D-01-0.657D-02-0.111D+00-0.977D-01
 Coeff-Com:  0.120D+01
 Coeff-En:   0.000D+00 0.000D+00 0.000D+00 0.000D+00 0.000D+00 0.000D+00
 Coeff-En:   0.100D+01
 Coeff:     -0.283D-02 0.586D-02 0.135D-01-0.656D-02-0.111D+00-0.976D-01
 Coeff:      0.120D+01
 Gap=     0.403 Goal=   None    Shift=    0.000
 Gap=     0.350 Goal=   None    Shift=    0.000
 RMSDP=1.95D-05 MaxDP=9.44D-04 DE=-2.59D-05 OVMax= 2.00D-03

 Cycle   8  Pass 1  IDiag  1:
 RMSU=  8.31D-06    CP:  9.37D-01  1.76D+00  9.93D-01  8.32D-01  1.49D+00
                    CP:  1.33D+00  1.38D+00
 E= -483.203903453560     Delta-E=       -0.000003824655 Rises=F Damp=F
 DIIS: error= 5.25D-05 at cycle   8 NSaved=   8.
 NSaved= 8 IEnMin= 8 EnMin= -483.203903453560     IErMin= 8 ErrMin= 5.25D-05
 ErrMax= 5.25D-05  0.00D+00 EMaxC= 1.00D-01 BMatC= 1.09D-06 BMatP= 5.17D-06
 IDIUse=1 WtCom= 1.00D+00 WtEn= 0.00D+00
 Coeff-Com: -0.335D-02 0.655D-02 0.188D-01 0.110D-01-0.718D-01-0.155D+00
 Coeff-Com:  0.130D+00 0.106D+01
 Coeff:     -0.335D-02 0.655D-02 0.188D-01 0.110D-01-0.718D-01-0.155D+00
 Coeff:      0.130D+00 0.106D+01
 Gap=     0.403 Goal=   None    Shift=    0.000
 Gap=     0.350 Goal=   None    Shift=    0.000
 RMSDP=9.27D-06 MaxDP=4.75D-04 DE=-3.82D-06 OVMax= 9.32D-04

 Cycle   9  Pass 1  IDiag  1:
 RMSU=  3.30D-06    CP:  9.37D-01  1.76D+00  9.94D-01  8.26D-01  1.50D+00
                    CP:  1.39D+00  1.61D+00  1.40D+00
 E= -483.203904270601     Delta-E=       -0.000000817041 Rises=F Damp=F
 DIIS: error= 2.18D-05 at cycle   9 NSaved=   9.
 NSaved= 9 IEnMin= 9 EnMin= -483.203904270601     IErMin= 9 ErrMin= 2.18D-05
 ErrMax= 2.18D-05  0.00D+00 EMaxC= 1.00D-01 BMatC= 1.76D-07 BMatP= 1.09D-06
 IDIUse=1 WtCom= 1.00D+00 WtEn= 0.00D+00
 Coeff-Com:  0.806D-04-0.279D-03 0.376D-03 0.112D-02 0.121D-01-0.729D-02
 Coeff-Com: -0.201D+00 0.188D+00 0.101D+01
 Coeff:      0.806D-04-0.279D-03 0.376D-03 0.112D-02 0.121D-01-0.729D-02
 Coeff:     -0.201D+00 0.188D+00 0.101D+01
 Gap=     0.403 Goal=   None    Shift=    0.000
 Gap=     0.350 Goal=   None    Shift=    0.000
 RMSDP=3.63D-06 MaxDP=2.01D-04 DE=-8.17D-07 OVMax= 3.61D-04

 Cycle  10  Pass 1  IDiag  1:
 RMSU=  1.36D-06    CP:  9.37D-01  1.76D+00  9.94D-01  8.23D-01  1.50D+00
                    CP:  1.41D+00  1.65D+00  1.70D+00  1.33D+00
 E= -483.203904401287     Delta-E=       -0.000000130686 Rises=F Damp=F
 DIIS: error= 6.73D-06 at cycle  10 NSaved=  10.
 NSaved=10 IEnMin=10 EnMin= -483.203904401287     IErMin=10 ErrMin= 6.73D-06
 ErrMax= 6.73D-06  0.00D+00 EMaxC= 1.00D-01 BMatC= 2.35D-08 BMatP= 1.76D-07
 IDIUse=1 WtCom= 1.00D+00 WtEn= 0.00D+00
 Coeff-Com:  0.779D-03-0.151D-02-0.411D-02-0.308D-02 0.182D-01 0.326D-01
 Coeff-Com: -0.495D-01-0.197D+00 0.944D-01 0.111D+01
 Coeff:      0.779D-03-0.151D-02-0.411D-02-0.308D-02 0.182D-01 0.326D-01
 Coeff:     -0.495D-01-0.197D+00 0.944D-01 0.111D+01
 Gap=     0.403 Goal=   None    Shift=    0.000
 Gap=     0.350 Goal=   None    Shift=    0.000
 RMSDP=1.62D-06 MaxDP=7.77D-05 DE=-1.31D-07 OVMax= 1.23D-04

 Cycle  11  Pass 1  IDiag  1:
 RMSU=  4.80D-07    CP:  9.37D-01  1.76D+00  9.95D-01  8.22D-01  1.50D+00
                    CP:  1.41D+00  1.66D+00  1.80D+00  1.59D+00  1.29D+00
 E= -483.203904419583     Delta-E=       -0.000000018296 Rises=F Damp=F
 DIIS: error= 1.54D-06 at cycle  11 NSaved=  11.
 NSaved=11 IEnMin=11 EnMin= -483.203904419583     IErMin=11 ErrMin= 1.54D-06
 ErrMax= 1.54D-06  0.00D+00 EMaxC= 1.00D-01 BMatC= 1.42D-09 BMatP= 2.35D-08
 IDIUse=1 WtCom= 1.00D+00 WtEn= 0.00D+00
 Coeff-Com: -0.281D-04 0.636D-04 0.134D-03-0.278D-04-0.905D-03 0.740D-04
 Coeff-Com:  0.163D-01-0.109D-01-0.926D-01-0.105D-01 0.110D+01
 Coeff:     -0.281D-04 0.636D-04 0.134D-03-0.278D-04-0.905D-03 0.740D-04
 Coeff:      0.163D-01-0.109D-01-0.926D-01-0.105D-01 0.110D+01
 Gap=     0.403 Goal=   None    Shift=    0.000
 Gap=     0.350 Goal=   None    Shift=    0.000
 RMSDP=3.41D-07 MaxDP=1.29D-05 DE=-1.83D-08 OVMax= 1.46D-05

 Cycle  12  Pass 1  IDiag  1:
 RMSU=  1.61D-07    CP:  9.37D-01  1.76D+00  9.95D-01  8.22D-01  1.50D+00
                    CP:  1.41D+00  1.65D+00  1.81D+00  1.62D+00  1.43D+00
                    CP:  1.30D+00
 E= -483.203904420560     Delta-E=       -0.000000000978 Rises=F Damp=F
 DIIS: error= 4.09D-07 at cycle  12 NSaved=  12.
 NSaved=12 IEnMin=12 EnMin= -483.203904420560     IErMin=12 ErrMin= 4.09D-07
 ErrMax= 4.09D-07  0.00D+00 EMaxC= 1.00D-01 BMatC= 2.48D-10 BMatP= 1.42D-09
 IDIUse=1 WtCom= 1.00D+00 WtEn= 0.00D+00
 Coeff-Com: -0.996D-04 0.195D-03 0.526D-03 0.352D-03-0.240D-02-0.392D-02
 Coeff-Com:  0.107D-01 0.205D-01-0.365D-01-0.134D+00 0.298D+00 0.846D+00
 Coeff:     -0.996D-04 0.195D-03 0.526D-03 0.352D-03-0.240D-02-0.392D-02
 Coeff:      0.107D-01 0.205D-01-0.365D-01-0.134D+00 0.298D+00 0.846D+00
 Gap=     0.403 Goal=   None    Shift=    0.000
 Gap=     0.350 Goal=   None    Shift=    0.000
 RMSDP=1.03D-07 MaxDP=3.06D-06 DE=-9.78D-10 OVMax= 3.61D-06

 Cycle  13  Pass 1  IDiag  1:
 RMSU=  5.97D-08    CP:  9.37D-01  1.76D+00  9.95D-01  8.22D-01  1.50D+00
                    CP:  1.41D+00  1.66D+00  1.81D+00  1.62D+00  1.45D+00
                    CP:  1.42D+00  1.17D+00
 E= -483.203904420680     Delta-E=       -0.000000000119 Rises=F Damp=F
 DIIS: error= 1.81D-07 at cycle  13 NSaved=  13.
 NSaved=13 IEnMin=13 EnMin= -483.203904420680     IErMin=13 ErrMin= 1.81D-07
 ErrMax= 1.81D-07  0.00D+00 EMaxC= 1.00D-01 BMatC= 3.24D-11 BMatP= 2.48D-10
 IDIUse=1 WtCom= 1.00D+00 WtEn= 0.00D+00
 Coeff-Com: -0.186D-04 0.351D-04 0.981D-04 0.837D-04-0.459D-03-0.102D-02
 Coeff-Com: -0.614D-04 0.674D-02 0.754D-02-0.307D-01-0.117D+00 0.191D+00
 Coeff-Com:  0.944D+00
 Coeff:     -0.186D-04 0.351D-04 0.981D-04 0.837D-04-0.459D-03-0.102D-02
 Coeff:     -0.614D-04 0.674D-02 0.754D-02-0.307D-01-0.117D+00 0.191D+00
 Coeff:      0.944D+00
 Gap=     0.403 Goal=   None    Shift=    0.000
 Gap=     0.350 Goal=   None    Shift=    0.000
 RMSDP=5.46D-08 MaxDP=1.40D-06 DE=-1.19D-10 OVMax= 2.36D-06

 Cycle  14  Pass 1  IDiag  1:
 RMSU=  2.13D-08    CP:  9.37D-01  1.76D+00  9.95D-01  8.22D-01  1.51D+00
                    CP:  1.41D+00  1.66D+00  1.81D+00  1.62D+00  1.45D+00
                    CP:  1.46D+00  1.34D+00  1.14D+00
 E= -483.203904420696     Delta-E=       -0.000000000017 Rises=F Damp=F
 DIIS: error= 4.46D-08 at cycle  14 NSaved=  14.
 NSaved=14 IEnMin=14 EnMin= -483.203904420696     IErMin=14 ErrMin= 4.46D-08
 ErrMax= 4.46D-08  0.00D+00 EMaxC= 1.00D-01 BMatC= 1.72D-12 BMatP= 3.24D-11
 IDIUse=1 WtCom= 1.00D+00 WtEn= 0.00D+00
 Coeff-Com:  0.833D-05-0.164D-04-0.454D-04-0.319D-04 0.201D-03 0.341D-03
 Coeff-Com: -0.854D-03-0.180D-02 0.293D-02 0.115D-01-0.206D-01-0.777D-01
 Coeff-Com: -0.489D-01 0.113D+01
 Coeff:      0.833D-05-0.164D-04-0.454D-04-0.319D-04 0.201D-03 0.341D-03
 Coeff:     -0.854D-03-0.180D-02 0.293D-02 0.115D-01-0.206D-01-0.777D-01
 Coeff:     -0.489D-01 0.113D+01
 Gap=     0.403 Goal=   None    Shift=    0.000
 Gap=     0.350 Goal=   None    Shift=    0.000
 RMSDP=1.59D-08 MaxDP=4.03D-07 DE=-1.66D-11 OVMax= 7.73D-07

 Cycle  15  Pass 1  IDiag  1:
 RMSU=  5.81D-09    CP:  9.37D-01  1.76D+00  9.95D-01  8.22D-01  1.51D+00
                    CP:  1.41D+00  1.66D+00  1.81D+00  1.62D+00  1.45D+00
                    CP:  1.47D+00  1.38D+00  1.25D+00  1.30D+00
 E= -483.203904420701     Delta-E=       -0.000000000005 Rises=F Damp=F
 DIIS: error= 1.30D-08 at cycle  15 NSaved=  15.
 NSaved=15 IEnMin=15 EnMin= -483.203904420701     IErMin=15 ErrMin= 1.30D-08
 ErrMax= 1.30D-08  0.00D+00 EMaxC= 1.00D-01 BMatC= 1.71D-13 BMatP= 1.72D-12
 IDIUse=1 WtCom= 1.00D+00 WtEn= 0.00D+00
 Coeff-Com: -0.467D-07 0.231D-06 0.298D-06-0.141D-05 0.842D-05 0.334D-04
 Coeff-Com:  0.127D-03-0.261D-03-0.113D-02 0.575D-03 0.137D-01-0.334D-02
 Coeff-Com: -0.731D-01-0.176D+00 0.124D+01
 Coeff:     -0.467D-07 0.231D-06 0.298D-06-0.141D-05 0.842D-05 0.334D-04
 Coeff:      0.127D-03-0.261D-03-0.113D-02 0.575D-03 0.137D-01-0.334D-02
 Coeff:     -0.731D-01-0.176D+00 0.124D+01
 Gap=     0.403 Goal=   None    Shift=    0.000
 Gap=     0.350 Goal=   None    Shift=    0.000
 RMSDP=4.45D-09 MaxDP=1.02D-07 DE=-5.12D-12 OVMax= 1.50D-07

 Error on total polarization charges =  0.00819
 SCF Done:  E(UwB97XD) =  -483.203904421     A.U. after   15 cycles
            NFock= 15  Conv=0.45D-08     -V/T= 2.0100
 <Sx>= 0.0000 <Sy>= 0.0000 <Sz>= 0.5000 <S**2>= 0.7539 S= 0.5019
 <L.S>=  0.00000000000    
 KE= 4.784004781212D+02 PE=-2.556931055334D+03 EE= 8.774086238037D+02
 Annihilation of the first spin contaminant:
 S**2 before annihilation     0.7539,   after     0.7500
 Leave Link  502 at Wed Feb 28 21:08:54 2024, MaxMem=  2147483648 cpu:             666.2 elap:              24.1
 (Enter /software/gaussian-16RevA.03-el7-x86_64/g16/l508.exe)
 QCSCF skips out because SCF is already converged.
 Leave Link  508 at Wed Feb 28 21:08:54 2024, MaxMem=  2147483648 cpu:               0.1 elap:               0.0
 (Enter /software/gaussian-16RevA.03-el7-x86_64/g16/l801.exe)
 DoSCS=F DFT=T ScalE2(SS,OS)=  1.000000  1.000000
 Range of M.O.s used for correlation:     1   190
 NBasis=   190 NAE=    44 NBE=    43 NFC=     0 NFV=     0
 NROrb=    190 NOA=    44 NOB=    43 NVA=   146 NVB=   147
 Leave Link  801 at Wed Feb 28 21:08:54 2024, MaxMem=  2147483648 cpu:               0.8 elap:               0.0
 (Enter /software/gaussian-16RevA.03-el7-x86_64/g16/l1101.exe)
 Using compressed storage, NAtomX=    29.
 Will process     30 centers per pass.
   1 Symmetry operations used in ECPInt.
 ECPInt:  NShTT=    5253 NPrTT=   21107 LenC2=    5228 LenP2D=   16402.
 LDataN:  DoStor=T MaxTD1= 5 Len=  102
 R6Disp: Adding Grimme-D2 dispersion energy 1st derivatives to the gradient.
 Leave Link 1101 at Wed Feb 28 21:08:55 2024, MaxMem=  2147483648 cpu:               8.3 elap:               0.3
 (Enter /software/gaussian-16RevA.03-el7-x86_64/g16/l1102.exe)
 Symmetrizing basis deriv contribution to polar:
 IMax=3 JMax=2 DiffMx= 0.00D+00
 Leave Link 1102 at Wed Feb 28 21:08:55 2024, MaxMem=  2147483648 cpu:               1.4 elap:               0.1
 (Enter /software/gaussian-16RevA.03-el7-x86_64/g16/l1110.exe)
 Forming Gx(P) for the SCF density, NAtomX=    29.
 Integral derivatives from FoFJK, PRISM(SPDF).
 Do as many integral derivatives as possible in FoFJK.
 G2DrvN: MDV=    2147481424.
 G2DrvN: will do    30 centers at a time, making    1 passes.
 Calling FoFCou, ICntrl=  3107 FMM=F I1Cent=   0 AccDes= 0.00D+00.
 FoFJK:  IHMeth= 1 ICntrl=    3107 DoSepK=T KAlg= 0 I1Cent=           0 FoldK=F
 IRaf=         1 NMat=       1 IRICut=       1 DoRegI=T DoRafI=F ISym2E= 0 IDoP0=0 IntGTp=1.
 FoFCou: FMM=F IPFlag=           0 FMFlag=      100000 FMFlg1=           0
         NFxFlg=           0 DoJE=F BraDBF=F KetDBF=F FulRan=T
         wScrn=  0.000000 ICntrl=      3507 IOpCl=  0 I1Cent=           0 NGrid=           0
         NMat0=    1 NMatS0=      1 NMatT0=    0 NMatD0=    1 NMtDS0=    0 NMtDT0=    0
 Symmetry not used in FoFCou.
 NEqPCM:  Using equilibrium solvation (IEInf=0, Eps=   7.4257, EpsInf=   1.9740)
 G2PCM: DoFxE=T DoFxN=T DoGrad=T DoDP/DQ/DG/TGxP=FFFF NFrqRd=   0 IEInf=0 SqF1=F DoCFld=F IF1Alg=4.
 GePol: Maximum number of non-zero 1st derivatives   =     165
 End of G2Drv F.D. properties file   721 does not exist.
 End of G2Drv F.D. properties file   722 does not exist.
 End of G2Drv F.D. properties file   788 does not exist.
 Leave Link 1110 at Wed Feb 28 21:09:24 2024, MaxMem=  2147483648 cpu:             819.3 elap:              29.3
 (Enter /software/gaussian-16RevA.03-el7-x86_64/g16/l1002.exe)
 Minotr:  UHF open shell wavefunction.
          IDoAtm=11111111111111111111111111111
 NEqPCM:  Using equilibrium solvation (IEInf=0, Eps=   7.4257, EpsInf=   1.9740)
          Direct CPHF calculation.
          Differentiating once with respect to electric field.
                with respect to dipole field.
          Differentiating once with respect to nuclear coordinates.
          Requested convergence is 1.0D-08 RMS, and 1.0D-07 maximum.
          Secondary convergence is 1.0D-12 RMS, and 1.0D-12 maximum.
          NewPWx=T KeepS1=F KeepF1=F KeepIn=T MapXYZ=F SortEE=F KeepMc=T.
         8643 words used for storage of precomputed grid.
 Keep R1 and R2 ints in memory in canonical form, NReq=687285793.
 FoFCou: FMM=F IPFlag=           0 FMFlag=           0 FMFlg1=           0
         NFxFlg=           0 DoJE=F BraDBF=F KetDBF=F FulRan=T
         wScrn=  0.000000 ICntrl=       600 IOpCl=  0 I1Cent=           0 NGrid=           0
         NMat0=    1 NMatS0=  18145 NMatT0=    0 NMatD0=    1 NMtDS0=    0 NMtDT0=    0
 Symmetry not used in FoFCou.
 Two-electron integral symmetry not used.
          MDV=    2147483648 using IRadAn=       1.
          Solving linear equations simultaneously, MaxMat=       0.
          There are    90 degrees of freedom in the 1st order CPHF.  IDoFFX=6 NUNeed=     3.
     87 vectors produced by pass  0 Test12= 1.42D-14 1.11D-09 XBig12= 7.88D+01 2.43D+00.
 AX will form    87 AO Fock derivatives at one time.
     87 vectors produced by pass  1 Test12= 1.42D-14 1.11D-09 XBig12= 7.15D+00 3.95D-01.
     87 vectors produced by pass  2 Test12= 1.42D-14 1.11D-09 XBig12= 4.65D-01 1.92D-01.
     87 vectors produced by pass  3 Test12= 1.42D-14 1.11D-09 XBig12= 4.75D-03 1.25D-02.
     87 vectors produced by pass  4 Test12= 1.42D-14 1.11D-09 XBig12= 3.58D-05 1.43D-03.
     87 vectors produced by pass  5 Test12= 1.42D-14 1.11D-09 XBig12= 3.03D-07 9.68D-05.
     86 vectors produced by pass  6 Test12= 1.42D-14 1.11D-09 XBig12= 2.71D-09 4.27D-06.
     26 vectors produced by pass  7 Test12= 1.42D-14 1.11D-09 XBig12= 1.52D-11 2.97D-07.
      3 vectors produced by pass  8 Test12= 1.42D-14 1.11D-09 XBig12= 1.20D-13 4.63D-08.
      1 vectors produced by pass  9 Test12= 1.42D-14 1.11D-09 XBig12= 8.85D-16 3.33D-09.
 InvSVY:  IOpt=1 It=  1 EMax= 5.33D-15
 Solved reduced A of dimension   638 with    90 vectors.
 FullF1:  Do perturbations      1 to       3.
 Isotropic polarizability for W=    0.000000      123.79 Bohr**3.
 End of Minotr F.D. properties file   721 does not exist.
 End of Minotr F.D. properties file   722 does not exist.
 End of Minotr F.D. properties file   788 does not exist.
 Leave Link 1002 at Wed Feb 28 21:10:09 2024, MaxMem=  2147483648 cpu:            1225.6 elap:              44.4
 (Enter /software/gaussian-16RevA.03-el7-x86_64/g16/l601.exe)
 Copying SCF densities to generalized density rwf, IOpCl= 1 IROHF=0.

 **********************************************************************

            Population analysis using the SCF density.

 **********************************************************************

 Alpha  occ. eigenvalues --  -19.24974 -14.52681 -10.34167 -10.34161 -10.29106
 Alpha  occ. eigenvalues --  -10.29104 -10.29059 -10.28095 -10.28091 -10.27725
 Alpha  occ. eigenvalues --  -10.27725  -1.19125  -0.96402  -0.91647  -0.86156
 Alpha  occ. eigenvalues --   -0.81034  -0.78786  -0.77726  -0.77278  -0.69280
 Alpha  occ. eigenvalues --   -0.68993  -0.60699  -0.57848  -0.57397  -0.56598
 Alpha  occ. eigenvalues --   -0.55209  -0.53233  -0.51514  -0.51431  -0.49431
 Alpha  occ. eigenvalues --   -0.49083  -0.47498  -0.47481  -0.45935  -0.45560
 Alpha  occ. eigenvalues --   -0.45169  -0.43857  -0.43476  -0.41717  -0.40958
 Alpha  occ. eigenvalues --   -0.40445  -0.39354  -0.33876  -0.27434
 Alpha virt. eigenvalues --    0.12835   0.15642   0.15826   0.16460   0.16869
 Alpha virt. eigenvalues --    0.19393   0.19945   0.21484   0.21874   0.22341
 Alpha virt. eigenvalues --    0.22592   0.22725   0.23644   0.24743   0.25493
 Alpha virt. eigenvalues --    0.25846   0.26449   0.27131   0.27718   0.28478
 Alpha virt. eigenvalues --    0.28636   0.29704   0.30838   0.32288   0.33851
 Alpha virt. eigenvalues --    0.34451   0.35479   0.37238   0.39758   0.47689
 Alpha virt. eigenvalues --    0.48554   0.49062   0.50368   0.52097   0.54016
 Alpha virt. eigenvalues --    0.56466   0.56821   0.61881   0.62317   0.64973
 Alpha virt. eigenvalues --    0.65680   0.68109   0.68468   0.70171   0.72140
 Alpha virt. eigenvalues --    0.72727   0.73757   0.74091   0.74917   0.75238
 Alpha virt. eigenvalues --    0.77775   0.78052   0.78140   0.78474   0.78936
 Alpha virt. eigenvalues --    0.80651   0.80746   0.80981   0.81526   0.81602
 Alpha virt. eigenvalues --    0.81789   0.82039   0.83322   0.84479   0.84733
 Alpha virt. eigenvalues --    0.85032   0.85504   0.86022   0.86929   0.86966
 Alpha virt. eigenvalues --    0.89309   0.91156   0.94902   0.98263   0.98849
 Alpha virt. eigenvalues --    1.04696   1.05681   1.07299   1.10976   1.15323
 Alpha virt. eigenvalues --    1.17047   1.20052   1.23945   1.24327   1.26821
 Alpha virt. eigenvalues --    1.28625   1.33023   1.36274   1.36853   1.46204
 Alpha virt. eigenvalues --    1.51219   1.51373   1.58918   1.61440   1.72167
 Alpha virt. eigenvalues --    1.80975   1.84161   1.84645   1.86752   1.87892
 Alpha virt. eigenvalues --    1.91075   1.92004   1.93563   1.95051   1.97203
 Alpha virt. eigenvalues --    1.99425   1.99741   2.01998   2.06567   2.06678
 Alpha virt. eigenvalues --    2.10496   2.12879   2.14255   2.16782   2.18651
 Alpha virt. eigenvalues --    2.22435   2.23825   2.25486   2.26454   2.26625
 Alpha virt. eigenvalues --    2.28853   2.28866   2.36088   2.36422   2.40116
 Alpha virt. eigenvalues --    2.40153   2.44094   2.44940   2.47853   2.51755
 Alpha virt. eigenvalues --    2.55494   2.61753   2.67149   2.71402   2.74098
 Alpha virt. eigenvalues --    2.76297   2.76377   2.80611   2.81090   2.82033
 Alpha virt. eigenvalues --    2.86445   2.98360   3.07914   3.24198   3.42913
 Alpha virt. eigenvalues --    3.83449
  Beta  occ. eigenvalues --  -19.23733 -14.51697 -10.34203 -10.34196 -10.29101
  Beta  occ. eigenvalues --  -10.29100 -10.29060 -10.28044 -10.28040 -10.27706
  Beta  occ. eigenvalues --  -10.27706  -1.16575  -0.95518  -0.91517  -0.85653
  Beta  occ. eigenvalues --   -0.79561  -0.78592  -0.77617  -0.77253  -0.69039
  Beta  occ. eigenvalues --   -0.68581  -0.60008  -0.57184  -0.57122  -0.55226
  Beta  occ. eigenvalues --   -0.53310  -0.53158  -0.51456  -0.50987  -0.48831
  Beta  occ. eigenvalues --   -0.48587  -0.47375  -0.47168  -0.45320  -0.45107
  Beta  occ. eigenvalues --   -0.44961  -0.43437  -0.41921  -0.41560  -0.40824
  Beta  occ. eigenvalues --   -0.39281  -0.38288  -0.32510
  Beta virt. eigenvalues --    0.02537   0.12886   0.15650   0.15847   0.16697
  Beta virt. eigenvalues --    0.16913   0.19468   0.20032   0.21703   0.21880
  Beta virt. eigenvalues --    0.22359   0.22729   0.22746   0.23901   0.24813
  Beta virt. eigenvalues --    0.25514   0.25989   0.26526   0.27289   0.27973
  Beta virt. eigenvalues --    0.28508   0.28662   0.30197   0.31037   0.32820
  Beta virt. eigenvalues --    0.33886   0.34636   0.35608   0.37580   0.41040
  Beta virt. eigenvalues --    0.47845   0.48566   0.49171   0.50439   0.52164
  Beta virt. eigenvalues --    0.54578   0.56927   0.56957   0.62200   0.62429
  Beta virt. eigenvalues --    0.65203   0.65954   0.68161   0.68672   0.70335
  Beta virt. eigenvalues --    0.72192   0.72740   0.73803   0.74129   0.75071
  Beta virt. eigenvalues --    0.75302   0.77806   0.78139   0.78145   0.78563
  Beta virt. eigenvalues --    0.78997   0.80735   0.80770   0.81078   0.81556
  Beta virt. eigenvalues --    0.81645   0.81923   0.82149   0.83422   0.84514
  Beta virt. eigenvalues --    0.84837   0.85080   0.85604   0.86082   0.86970
  Beta virt. eigenvalues --    0.87021   0.89361   0.91248   0.94935   0.98791
  Beta virt. eigenvalues --    0.98865   1.05276   1.06566   1.08605   1.11209
  Beta virt. eigenvalues --    1.15379   1.18913   1.20242   1.24577   1.25471
  Beta virt. eigenvalues --    1.27434   1.28892   1.33710   1.36535   1.37426
  Beta virt. eigenvalues --    1.46360   1.51479   1.52009   1.59592   1.61745
  Beta virt. eigenvalues --    1.72396   1.81021   1.84602   1.84983   1.87772
  Beta virt. eigenvalues --    1.87978   1.91328   1.92552   1.93719   1.95531
  Beta virt. eigenvalues --    1.97390   1.99567   1.99774   2.02092   2.06640
  Beta virt. eigenvalues --    2.06789   2.10645   2.12945   2.14312   2.17228
  Beta virt. eigenvalues --    2.18739   2.22892   2.24012   2.25556   2.26690
  Beta virt. eigenvalues --    2.27037   2.28974   2.29180   2.36651   2.36802
  Beta virt. eigenvalues --    2.40300   2.40353   2.44559   2.45438   2.48287
  Beta virt. eigenvalues --    2.52551   2.55564   2.62442   2.68137   2.72177
  Beta virt. eigenvalues --    2.74879   2.77115   2.78915   2.81484   2.83148
  Beta virt. eigenvalues --    2.83301   2.86496   2.99692   3.09665   3.28238
  Beta virt. eigenvalues --    3.43826   3.85295
          Condensed to atoms (all electrons):
               1          2          3          4          5          6
     1  C    4.793572   0.406169  -0.047369  -0.009476  -0.047367   0.406163
     2  C    0.406169   4.978110   0.328148  -0.041446   0.004852  -0.068224
     3  C   -0.047369   0.328148   5.112404   0.237516  -0.103218   0.004854
     4  N   -0.009476  -0.041446   0.237516   6.721270   0.237480  -0.041439
     5  C   -0.047367   0.004852  -0.103218   0.237480   5.112395   0.328149
     6  C    0.406163  -0.068224   0.004854  -0.041439   0.328149   4.978151
     7  C   -0.011311   0.001123  -0.006610  -0.058488   0.406050  -0.077601
     8  C    0.010715  -0.002216   0.009827  -0.060949   0.397064  -0.064116
     9  O   -0.000141   0.006567  -0.067646   0.211963  -0.067627   0.006564
    10  C   -0.011313  -0.077582   0.406050  -0.058483  -0.006607   0.001123
    11  C    0.010714  -0.064104   0.397063  -0.060975   0.009831  -0.002216
    12  H    0.366807  -0.014815   0.007238   0.000033   0.007238  -0.014815
    13  H    0.375955  -0.026512  -0.006192  -0.002514  -0.006194  -0.026513
    14  H   -0.014706   0.360086  -0.015259   0.004831  -0.000251   0.008187
    15  H   -0.027215   0.357527  -0.013069  -0.002305  -0.004321  -0.000168
    16  H   -0.027216  -0.000167  -0.004321  -0.002305  -0.013071   0.357524
    17  H   -0.014706   0.008187  -0.000251   0.004831  -0.015260   0.360091
    18  H   -0.000424  -0.000113   0.000240  -0.009185  -0.016439   0.009910
    19  H   -0.000085   0.000005  -0.000063   0.005454  -0.020412  -0.003453
    20  H    0.004539  -0.001219   0.000940  -0.002536  -0.015277  -0.007500
    21  H   -0.000308   0.000132  -0.000085   0.001838  -0.012206  -0.008595
    22  H    0.000293  -0.000035  -0.000026   0.005589  -0.025631  -0.003707
    23  H   -0.000345  -0.000137   0.000826  -0.009120  -0.014408   0.008888
    24  H   -0.000084  -0.003454  -0.020410   0.005454  -0.000063   0.000005
    25  H   -0.000424   0.009910  -0.016432  -0.009193   0.000238  -0.000113
    26  H    0.004538  -0.007498  -0.015289  -0.002534   0.000941  -0.001219
    27  H   -0.000308  -0.008594  -0.012214   0.001843  -0.000084   0.000132
    28  H   -0.000345   0.008886  -0.014405  -0.009119   0.000825  -0.000137
    29  H    0.000294  -0.003705  -0.025634   0.005590  -0.000026  -0.000035
               7          8          9         10         11         12
     1  C   -0.011311   0.010715  -0.000141  -0.011313   0.010714   0.366807
     2  C    0.001123  -0.002216   0.006567  -0.077582  -0.064104  -0.014815
     3  C   -0.006610   0.009827  -0.067646   0.406050   0.397063   0.007238
     4  N   -0.058488  -0.060949   0.211963  -0.058483  -0.060975   0.000033
     5  C    0.406050   0.397064  -0.067627  -0.006607   0.009831   0.007238
     6  C   -0.077601  -0.064116   0.006564   0.001123  -0.002216  -0.014815
     7  C    4.957383  -0.082103  -0.009506   0.003200  -0.000706  -0.000272
     8  C   -0.082103   4.914848   0.004817  -0.000706  -0.000010  -0.000269
     9  O   -0.009506   0.004817   8.200430  -0.009520   0.004823   0.000010
    10  C    0.003200  -0.000706  -0.009520   4.957353  -0.082096  -0.000272
    11  C   -0.000706  -0.000010   0.004823  -0.082096   4.914860  -0.000269
    12  H   -0.000272  -0.000269   0.000010  -0.000272  -0.000269   0.579419
    13  H    0.004462   0.000071  -0.000049   0.004458   0.000071  -0.025881
    14  H   -0.000012   0.000039  -0.000127  -0.004520  -0.004596  -0.004001
    15  H    0.000313  -0.000232  -0.000213   0.009575  -0.007965  -0.006600
    16  H    0.009576  -0.007967  -0.000213   0.000313  -0.000232  -0.006600
    17  H   -0.004522  -0.004597  -0.000127  -0.000012   0.000039  -0.004001
    18  H    0.371062  -0.007992   0.015879   0.000907  -0.000139   0.000013
    19  H    0.377816  -0.002409   0.000026   0.000049   0.000018  -0.000006
    20  H    0.378743   0.007360  -0.000239   0.000260   0.000013  -0.000195
    21  H    0.009029   0.370402  -0.001364   0.000055  -0.000116  -0.000025
    22  H   -0.003865   0.381012   0.000720   0.000016   0.000005  -0.000011
    23  H   -0.005925   0.374766   0.016999   0.000002  -0.000043   0.000009
    24  H    0.000049   0.000018   0.000026   0.377814  -0.002411  -0.000006
    25  H    0.000909  -0.000139   0.015892   0.371056  -0.007991   0.000013
    26  H    0.000250   0.000013  -0.000238   0.378749   0.007360  -0.000195
    27  H    0.000055  -0.000116  -0.001366   0.009030   0.370401  -0.000025
    28  H    0.000002  -0.000043   0.016998  -0.005923   0.374772   0.000009
    29  H    0.000016   0.000005   0.000721  -0.003867   0.381005  -0.000011
              13         14         15         16         17         18
     1  C    0.375955  -0.014706  -0.027215  -0.027216  -0.014706  -0.000424
     2  C   -0.026512   0.360086   0.357527  -0.000167   0.008187  -0.000113
     3  C   -0.006192  -0.015259  -0.013069  -0.004321  -0.000251   0.000240
     4  N   -0.002514   0.004831  -0.002305  -0.002305   0.004831  -0.009185
     5  C   -0.006194  -0.000251  -0.004321  -0.013071  -0.015260  -0.016439
     6  C   -0.026513   0.008187  -0.000168   0.357524   0.360091   0.009910
     7  C    0.004462  -0.000012   0.000313   0.009576  -0.004522   0.371062
     8  C    0.000071   0.000039  -0.000232  -0.007967  -0.004597  -0.007992
     9  O   -0.000049  -0.000127  -0.000213  -0.000213  -0.000127   0.015879
    10  C    0.004458  -0.004520   0.009575   0.000313  -0.000012   0.000907
    11  C    0.000071  -0.004596  -0.007965  -0.000232   0.000039  -0.000139
    12  H   -0.025881  -0.004001  -0.006600  -0.006600  -0.004001   0.000013
    13  H    0.590107  -0.005410   0.006956   0.006956  -0.005409  -0.000277
    14  H   -0.005410   0.578739  -0.024525   0.000024  -0.000315   0.000005
    15  H    0.006956  -0.024525   0.597767   0.006125   0.000024   0.000004
    16  H    0.006956   0.000024   0.006125   0.597770  -0.024524  -0.000328
    17  H   -0.005409  -0.000315   0.000024  -0.024524   0.578735   0.000038
    18  H   -0.000277   0.000005   0.000004  -0.000328   0.000038   0.542751
    19  H   -0.000030  -0.000003  -0.000006  -0.000175   0.003592  -0.018191
    20  H    0.004573   0.000043  -0.000018   0.000009  -0.000627  -0.019733
    21  H    0.000017   0.000001   0.000072   0.007457  -0.000249  -0.000047
    22  H   -0.000028   0.000000   0.000009  -0.000864   0.004043  -0.000117
    23  H    0.000009   0.000001   0.000009   0.000053  -0.000355   0.005440
    24  H   -0.000030   0.003591  -0.000175  -0.000006  -0.000003   0.000005
    25  H   -0.000278   0.000038  -0.000328   0.000004   0.000005   0.000202
    26  H    0.004576  -0.000627   0.000010  -0.000018   0.000043  -0.000228
    27  H    0.000017  -0.000249   0.007456   0.000072   0.000001   0.000004
    28  H    0.000009  -0.000355   0.000053   0.000009   0.000001  -0.000034
    29  H   -0.000028   0.004042  -0.000864   0.000009   0.000000  -0.000002
              19         20         21         22         23         24
     1  C   -0.000085   0.004539  -0.000308   0.000293  -0.000345  -0.000084
     2  C    0.000005  -0.001219   0.000132  -0.000035  -0.000137  -0.003454
     3  C   -0.000063   0.000940  -0.000085  -0.000026   0.000826  -0.020410
     4  N    0.005454  -0.002536   0.001838   0.005589  -0.009120   0.005454
     5  C   -0.020412  -0.015277  -0.012206  -0.025631  -0.014408  -0.000063
     6  C   -0.003453  -0.007500  -0.008595  -0.003707   0.008888   0.000005
     7  C    0.377816   0.378743   0.009029  -0.003865  -0.005925   0.000049
     8  C   -0.002409   0.007360   0.370402   0.381012   0.374766   0.000018
     9  O    0.000026  -0.000239  -0.001364   0.000720   0.016999   0.000026
    10  C    0.000049   0.000260   0.000055   0.000016   0.000002   0.377814
    11  C    0.000018   0.000013  -0.000116   0.000005  -0.000043  -0.002411
    12  H   -0.000006  -0.000195  -0.000025  -0.000011   0.000009  -0.000006
    13  H   -0.000030   0.004573   0.000017  -0.000028   0.000009  -0.000030
    14  H   -0.000003   0.000043   0.000001   0.000000   0.000001   0.003591
    15  H   -0.000006  -0.000018   0.000072   0.000009   0.000009  -0.000175
    16  H   -0.000175   0.000009   0.007457  -0.000864   0.000053  -0.000006
    17  H    0.003592  -0.000627  -0.000249   0.004043  -0.000355  -0.000003
    18  H   -0.018191  -0.019733  -0.000047  -0.000117   0.005440   0.000005
    19  H    0.551845  -0.019270  -0.000062   0.003211  -0.000694  -0.000001
    20  H   -0.019270   0.538612  -0.000324  -0.000057   0.000020   0.000056
    21  H   -0.000062  -0.000324   0.554452  -0.018075  -0.019169  -0.000002
    22  H    0.003211  -0.000057  -0.018075   0.557734  -0.018992  -0.000000
    23  H   -0.000694   0.000020  -0.019169  -0.018992   0.533923   0.000001
    24  H   -0.000001   0.000056  -0.000002  -0.000000   0.000001   0.551850
    25  H    0.000005  -0.000229   0.000004  -0.000002  -0.000034  -0.018189
    26  H    0.000056   0.005609  -0.000004   0.000000  -0.000001  -0.019271
    27  H   -0.000002  -0.000004   0.000153   0.000003  -0.000004  -0.000062
    28  H    0.000001  -0.000001  -0.000004  -0.000001  -0.000022  -0.000694
    29  H   -0.000000   0.000000   0.000003  -0.000000  -0.000001   0.003211
              25         26         27         28         29
     1  C   -0.000424   0.004538  -0.000308  -0.000345   0.000294
     2  C    0.009910  -0.007498  -0.008594   0.008886  -0.003705
     3  C   -0.016432  -0.015289  -0.012214  -0.014405  -0.025634
     4  N   -0.009193  -0.002534   0.001843  -0.009119   0.005590
     5  C    0.000238   0.000941  -0.000084   0.000825  -0.000026
     6  C   -0.000113  -0.001219   0.000132  -0.000137  -0.000035
     7  C    0.000909   0.000250   0.000055   0.000002   0.000016
     8  C   -0.000139   0.000013  -0.000116  -0.000043   0.000005
     9  O    0.015892  -0.000238  -0.001366   0.016998   0.000721
    10  C    0.371056   0.378749   0.009030  -0.005923  -0.003867
    11  C   -0.007991   0.007360   0.370401   0.374772   0.381005
    12  H    0.000013  -0.000195  -0.000025   0.000009  -0.000011
    13  H   -0.000278   0.004576   0.000017   0.000009  -0.000028
    14  H    0.000038  -0.000627  -0.000249  -0.000355   0.004042
    15  H   -0.000328   0.000010   0.007456   0.000053  -0.000864
    16  H    0.000004  -0.000018   0.000072   0.000009   0.000009
    17  H    0.000005   0.000043   0.000001   0.000001   0.000000
    18  H    0.000202  -0.000228   0.000004  -0.000034  -0.000002
    19  H    0.000005   0.000056  -0.000002   0.000001  -0.000000
    20  H   -0.000229   0.005609  -0.000004  -0.000001   0.000000
    21  H    0.000004  -0.000004   0.000153  -0.000004   0.000003
    22  H   -0.000002   0.000000   0.000003  -0.000001  -0.000000
    23  H   -0.000034  -0.000001  -0.000004  -0.000022  -0.000001
    24  H   -0.018189  -0.019271  -0.000062  -0.000694   0.003211
    25  H    0.542748  -0.019735  -0.000047   0.005437  -0.000116
    26  H   -0.019735   0.538616  -0.000324   0.000020  -0.000057
    27  H   -0.000047  -0.000324   0.554462  -0.019170  -0.018072
    28  H    0.005437   0.000020  -0.019170   0.533915  -0.018994
    29  H   -0.000116  -0.000057  -0.018072  -0.018994   0.557744
          Atomic-Atomic Spin Densities.
               1          2          3          4          5          6
     1  C    0.015152  -0.008762   0.006733  -0.000414   0.006734  -0.008761
     2  C   -0.008762   0.001764   0.002363  -0.001225  -0.003562   0.004166
     3  C    0.006733   0.002363  -0.034963   0.017765   0.007882  -0.003562
     4  N   -0.000414  -0.001225   0.017765   0.681076   0.017762  -0.001225
     5  C    0.006734  -0.003562   0.007882   0.017762  -0.034958   0.002362
     6  C   -0.008761   0.004166  -0.003562  -0.001225   0.002362   0.001764
     7  C   -0.005827   0.001776  -0.003955  -0.019250  -0.015617   0.005861
     8  C    0.002158  -0.000631   0.000697  -0.019754  -0.001439   0.000638
     9  O   -0.000122  -0.000065  -0.003398  -0.177496  -0.003397  -0.000065
    10  C   -0.005826   0.005862  -0.015616  -0.019242  -0.003955   0.001776
    11  C    0.002158   0.000635  -0.001438  -0.019761   0.000698  -0.000631
    12  H    0.000887  -0.000428   0.000118  -0.000027   0.000118  -0.000428
    13  H   -0.001893   0.000988  -0.000787  -0.000210  -0.000787   0.000988
    14  H   -0.000090   0.000543  -0.000159  -0.000003  -0.000001   0.000012
    15  H   -0.001613   0.000636  -0.000535   0.001664  -0.000228   0.000577
    16  H   -0.001613   0.000577  -0.000228   0.001664  -0.000535   0.000636
    17  H   -0.000090   0.000012  -0.000001  -0.000003  -0.000159   0.000543
    18  H   -0.000237   0.000092  -0.000471  -0.004662   0.000477  -0.000013
    19  H    0.000303  -0.000060   0.000142   0.000530   0.002471  -0.000657
    20  H    0.000379  -0.000124   0.000241   0.000952   0.000937  -0.000238
    21  H   -0.000197   0.000086  -0.000028   0.003450   0.001777  -0.000044
    22  H   -0.000028   0.000017  -0.000027   0.000044   0.001943  -0.000095
    23  H   -0.000002   0.000009  -0.000077   0.000226   0.000661  -0.000218
    24  H    0.000303  -0.000657   0.002471   0.000530   0.000142  -0.000060
    25  H   -0.000237  -0.000012   0.000475  -0.004667  -0.000472   0.000092
    26  H    0.000378  -0.000238   0.000937   0.000951   0.000241  -0.000124
    27  H   -0.000197  -0.000043   0.001777   0.003452  -0.000028   0.000086
    28  H   -0.000002  -0.000218   0.000661   0.000226  -0.000077   0.000009
    29  H   -0.000028  -0.000095   0.001944   0.000044  -0.000027   0.000017
               7          8          9         10         11         12
     1  C   -0.005827   0.002158  -0.000122  -0.005826   0.002158   0.000887
     2  C    0.001776  -0.000631  -0.000065   0.005862   0.000635  -0.000428
     3  C   -0.003955   0.000697  -0.003398  -0.015616  -0.001438   0.000118
     4  N   -0.019250  -0.019754  -0.177496  -0.019242  -0.019761  -0.000027
     5  C   -0.015617  -0.001439  -0.003397  -0.003955   0.000698   0.000118
     6  C    0.005861   0.000638  -0.000065   0.001776  -0.000631  -0.000428
     7  C    0.077429  -0.022092   0.005985   0.003745  -0.000617  -0.000052
     8  C   -0.022092   0.055425   0.004449  -0.000617   0.000648   0.000018
     9  O    0.005985   0.004449   0.668936   0.005984   0.004453   0.000000
    10  C    0.003745  -0.000617   0.005984   0.077410  -0.022091  -0.000052
    11  C   -0.000617   0.000648   0.004453  -0.022091   0.055433   0.000018
    12  H   -0.000052   0.000018   0.000000  -0.000052   0.000018   0.000401
    13  H    0.000833  -0.000104   0.000021   0.000832  -0.000104  -0.000134
    14  H    0.000015  -0.000005   0.000004   0.000464  -0.000289  -0.000007
    15  H    0.000123  -0.000174  -0.000080   0.000867  -0.002001  -0.000079
    16  H    0.000867  -0.002001  -0.000080   0.000123  -0.000174  -0.000079
    17  H    0.000465  -0.000290   0.000004   0.000015  -0.000005  -0.000007
    18  H    0.004197  -0.002115   0.002676   0.000558  -0.000087  -0.000002
    19  H   -0.004808   0.002673  -0.000233  -0.000104   0.000010   0.000002
    20  H   -0.001565   0.000281  -0.000185  -0.000357   0.000034   0.000006
    21  H    0.001064  -0.007480  -0.001441   0.000046  -0.000159  -0.000002
    22  H    0.000974  -0.002544  -0.000064   0.000006  -0.000005  -0.000000
    23  H    0.000429  -0.000091  -0.001093  -0.000000   0.000004  -0.000000
    24  H   -0.000104   0.000010  -0.000234  -0.004806   0.002673   0.000002
    25  H    0.000559  -0.000087   0.002680   0.004198  -0.002116  -0.000002
    26  H   -0.000357   0.000033  -0.000185  -0.001563   0.000280   0.000006
    27  H    0.000046  -0.000159  -0.001442   0.001064  -0.007481  -0.000002
    28  H   -0.000000   0.000004  -0.001093   0.000429  -0.000094  -0.000000
    29  H    0.000006  -0.000005  -0.000064   0.000974  -0.002543  -0.000000
              13         14         15         16         17         18
     1  C   -0.001893  -0.000090  -0.001613  -0.001613  -0.000090  -0.000237
     2  C    0.000988   0.000543   0.000636   0.000577   0.000012   0.000092
     3  C   -0.000787  -0.000159  -0.000535  -0.000228  -0.000001  -0.000471
     4  N   -0.000210  -0.000003   0.001664   0.001664  -0.000003  -0.004662
     5  C   -0.000787  -0.000001  -0.000228  -0.000535  -0.000159   0.000477
     6  C    0.000988   0.000012   0.000577   0.000636   0.000543  -0.000013
     7  C    0.000833   0.000015   0.000123   0.000867   0.000465   0.004197
     8  C   -0.000104  -0.000005  -0.000174  -0.002001  -0.000290  -0.002115
     9  O    0.000021   0.000004  -0.000080  -0.000080   0.000004   0.002676
    10  C    0.000832   0.000464   0.000867   0.000123   0.000015   0.000558
    11  C   -0.000104  -0.000289  -0.002001  -0.000174  -0.000005  -0.000087
    12  H   -0.000134  -0.000007  -0.000079  -0.000079  -0.000007  -0.000002
    13  H    0.000642   0.000020   0.000074   0.000074   0.000020   0.000049
    14  H    0.000020  -0.001363   0.000211   0.000010   0.000001   0.000000
    15  H    0.000074   0.000211   0.000364   0.000218   0.000010   0.000006
    16  H    0.000074   0.000010   0.000218   0.000364   0.000211   0.000040
    17  H    0.000020   0.000001   0.000010   0.000211  -0.001363   0.000028
    18  H    0.000049   0.000000   0.000006   0.000040   0.000028  -0.000562
    19  H   -0.000064  -0.000000  -0.000003  -0.000070  -0.000130  -0.002106
    20  H   -0.000094  -0.000003  -0.000006  -0.000019  -0.000027  -0.000373
    21  H    0.000006   0.000000   0.000042   0.000363   0.000036   0.000143
    22  H    0.000002  -0.000000   0.000002   0.000130  -0.000067   0.000134
    23  H    0.000000  -0.000000   0.000000   0.000011   0.000018  -0.000165
    24  H   -0.000064  -0.000130  -0.000070  -0.000003  -0.000000  -0.000031
    25  H    0.000049   0.000028   0.000040   0.000006   0.000000   0.000275
    26  H   -0.000094  -0.000027  -0.000019  -0.000006  -0.000003  -0.000083
    27  H    0.000006   0.000036   0.000363   0.000042   0.000000   0.000007
    28  H    0.000000   0.000018   0.000011   0.000000  -0.000000   0.000002
    29  H    0.000002  -0.000067   0.000130   0.000002  -0.000000   0.000001
              19         20         21         22         23         24
     1  C    0.000303   0.000379  -0.000197  -0.000028  -0.000002   0.000303
     2  C   -0.000060  -0.000124   0.000086   0.000017   0.000009  -0.000657
     3  C    0.000142   0.000241  -0.000028  -0.000027  -0.000077   0.002471
     4  N    0.000530   0.000952   0.003450   0.000044   0.000226   0.000530
     5  C    0.002471   0.000937   0.001777   0.001943   0.000661   0.000142
     6  C   -0.000657  -0.000238  -0.000044  -0.000095  -0.000218  -0.000060
     7  C   -0.004808  -0.001565   0.001064   0.000974   0.000429  -0.000104
     8  C    0.002673   0.000281  -0.007480  -0.002544  -0.000091   0.000010
     9  O   -0.000233  -0.000185  -0.001441  -0.000064  -0.001093  -0.000234
    10  C   -0.000104  -0.000357   0.000046   0.000006  -0.000000  -0.004806
    11  C    0.000010   0.000034  -0.000159  -0.000005   0.000004   0.002673
    12  H    0.000002   0.000006  -0.000002  -0.000000  -0.000000   0.000002
    13  H   -0.000064  -0.000094   0.000006   0.000002   0.000000  -0.000064
    14  H   -0.000000  -0.000003   0.000000  -0.000000  -0.000000  -0.000130
    15  H   -0.000003  -0.000006   0.000042   0.000002   0.000000  -0.000070
    16  H   -0.000070  -0.000019   0.000363   0.000130   0.000011  -0.000003
    17  H   -0.000130  -0.000027   0.000036  -0.000067   0.000018  -0.000000
    18  H   -0.002106  -0.000373   0.000143   0.000134  -0.000165  -0.000031
    19  H    0.004006   0.000521  -0.000095  -0.000207  -0.000038   0.000002
    20  H    0.000521  -0.001261  -0.000012  -0.000015  -0.000001   0.000027
    21  H   -0.000095  -0.000012   0.001992   0.000601   0.000229  -0.000001
    22  H   -0.000207  -0.000015   0.000601  -0.002090   0.000125  -0.000000
    23  H   -0.000038  -0.000001   0.000229   0.000125  -0.001264  -0.000000
    24  H    0.000002   0.000027  -0.000001  -0.000000  -0.000000   0.004005
    25  H   -0.000031  -0.000083   0.000007   0.000001   0.000002  -0.002108
    26  H    0.000027   0.000076  -0.000002  -0.000001   0.000000   0.000520
    27  H   -0.000001  -0.000002   0.000052   0.000001   0.000001  -0.000095
    28  H   -0.000000   0.000000   0.000001   0.000000   0.000002  -0.000038
    29  H   -0.000000  -0.000001   0.000001  -0.000000   0.000000  -0.000207
              25         26         27         28         29
     1  C   -0.000237   0.000378  -0.000197  -0.000002  -0.000028
     2  C   -0.000012  -0.000238  -0.000043  -0.000218  -0.000095
     3  C    0.000475   0.000937   0.001777   0.000661   0.001944
     4  N   -0.004667   0.000951   0.003452   0.000226   0.000044
     5  C   -0.000472   0.000241  -0.000028  -0.000077  -0.000027
     6  C    0.000092  -0.000124   0.000086   0.000009   0.000017
     7  C    0.000559  -0.000357   0.000046  -0.000000   0.000006
     8  C   -0.000087   0.000033  -0.000159   0.000004  -0.000005
     9  O    0.002680  -0.000185  -0.001442  -0.001093  -0.000064
    10  C    0.004198  -0.001563   0.001064   0.000429   0.000974
    11  C   -0.002116   0.000280  -0.007481  -0.000094  -0.002543
    12  H   -0.000002   0.000006  -0.000002  -0.000000  -0.000000
    13  H    0.000049  -0.000094   0.000006   0.000000   0.000002
    14  H    0.000028  -0.000027   0.000036   0.000018  -0.000067
    15  H    0.000040  -0.000019   0.000363   0.000011   0.000130
    16  H    0.000006  -0.000006   0.000042   0.000000   0.000002
    17  H    0.000000  -0.000003   0.000000  -0.000000  -0.000000
    18  H    0.000275  -0.000083   0.000007   0.000002   0.000001
    19  H   -0.000031   0.000027  -0.000001  -0.000000  -0.000000
    20  H   -0.000083   0.000076  -0.000002   0.000000  -0.000001
    21  H    0.000007  -0.000002   0.000052   0.000001   0.000001
    22  H    0.000001  -0.000001   0.000001   0.000000  -0.000000
    23  H    0.000002   0.000000   0.000001   0.000002   0.000000
    24  H   -0.002108   0.000520  -0.000095  -0.000038  -0.000207
    25  H   -0.000557  -0.000374   0.000143  -0.000165   0.000134
    26  H   -0.000374  -0.001261  -0.000012  -0.000001  -0.000015
    27  H    0.000143  -0.000012   0.001991   0.000229   0.000601
    28  H   -0.000165  -0.000001   0.000229  -0.001263   0.000125
    29  H    0.000134  -0.000015   0.000601   0.000125  -0.002091
 Mulliken charges and spin densities:
               1          2
     1  C   -0.166613  -0.000754
     2  C   -0.149879   0.003407
     3  C   -0.136610  -0.021039
     4  N   -0.063624   0.462396
     5  C   -0.136602  -0.021039
     6  C   -0.149890   0.003407
     7  C   -0.259119   0.030129
     8  C   -0.237093   0.007447
     9  O   -0.344057   0.504454
    10  C   -0.259110   0.030126
    11  C   -0.237104   0.007450
    12  H    0.117477   0.000277
    13  H    0.107107   0.000272
    14  H    0.115330  -0.000783
    15  H    0.102103   0.000530
    16  H    0.102104   0.000530
    17  H    0.115329  -0.000783
    18  H    0.126789  -0.002221
    19  H    0.122782   0.002080
    20  H    0.126453  -0.000913
    21  H    0.117019   0.000437
    22  H    0.118776  -0.001163
    23  H    0.128307  -0.001233
    24  H    0.122780   0.002080
    25  H    0.126790  -0.002220
    26  H    0.126458  -0.000914
    27  H    0.117012   0.000436
    28  H    0.128311  -0.001233
    29  H    0.118774  -0.001164
 Sum of Mulliken charges =  -0.00000   1.00000
 Mulliken charges and spin densities with hydrogens summed into heavy atoms:
               1          2
     1  C    0.057971  -0.000205
     2  C    0.067554   0.003154
     3  C   -0.136610  -0.021039
     4  N   -0.063624   0.462396
     5  C   -0.136602  -0.021039
     6  C    0.067543   0.003155
     7  C    0.116905   0.029076
     8  C    0.127009   0.005488
     9  O   -0.344057   0.504454
    10  C    0.116919   0.029072
    11  C    0.126993   0.005489
 APT charges:
               1
     1  C    0.072685
     2  C    0.065791
     3  C    0.375435
     4  N   -0.123971
     5  C    0.375445
     6  C    0.065794
     7  C   -0.066032
     8  C   -0.017702
     9  O   -0.573801
    10  C   -0.066027
    11  C   -0.017682
    12  H   -0.038052
    13  H   -0.024011
    14  H   -0.024847
    15  H   -0.036078
    16  H   -0.036084
    17  H   -0.024840
    18  H    0.022203
    19  H    0.000824
    20  H    0.004406
    21  H   -0.005804
    22  H    0.000282
    23  H    0.025078
    24  H    0.000824
    25  H    0.022227
    26  H    0.004396
    27  H   -0.005806
    28  H    0.025077
    29  H    0.000270
 Sum of APT charges =  -0.00000
 APT charges with hydrogens summed into heavy atoms:
               1
     1  C    0.010622
     2  C    0.004866
     3  C    0.375435
     4  N   -0.123971
     5  C    0.375445
     6  C    0.004870
     7  C   -0.038599
     8  C    0.001855
     9  O   -0.573801
    10  C   -0.038580
    11  C    0.001858
 Electronic spatial extent (au):  <R**2>=           1671.9572
 Charge=             -0.0000 electrons
 Dipole moment (field-independent basis, Debye):
    X=              0.0005    Y=              3.8208    Z=              0.2701  Tot=              3.8303
 Quadrupole moment (field-independent basis, Debye-Ang):
   XX=            -65.2066   YY=            -75.9757   ZZ=            -68.6727
   XY=             -0.0006   XZ=             -0.0002   YZ=             -0.6281
 Traceless Quadrupole moment (field-independent basis, Debye-Ang):
   XX=              4.7451   YY=             -6.0240   ZZ=              1.2790
   XY=             -0.0006   XZ=             -0.0002   YZ=             -0.6281
 Octapole moment (field-independent basis, Debye-Ang**2):
  XXX=              0.0016  YYY=             11.0020  ZZZ=             -2.7201  XYY=              0.0012
  XXY=             -0.7504  XXZ=              1.6148  XZZ=              0.0007  YZZ=             -2.0773
  YYZ=              1.0265  XYZ=              0.0003
 Hexadecapole moment (field-independent basis, Debye-Ang**3):
 XXXX=          -1102.8497 YYYY=           -709.0548 ZZZZ=           -423.8039 XXXY=              0.0030
 XXXZ=              0.0005 YYYX=             -0.0013 YYYZ=             -6.3746 ZZZX=             -0.0023
 ZZZY=              1.9790 XXYY=           -300.4558 XXZZ=           -265.2755 YYZZ=           -183.3934
 XXYZ=              0.3203 YYXZ=              0.0004 ZZXY=             -0.0001
 N-N= 7.179180489884D+02 E-N=-2.556931055287D+03  KE= 4.784004781212D+02
  Exact polarizability: 130.079   0.001 126.744   0.000  -0.171 114.550
 Approx polarizability: 106.957   0.001 113.512  -0.000  -0.218 102.459
                          Isotropic Fermi Contact Couplings
        Atom                 a.u.       MegaHertz       Gauss      10(-4) cm-1
     1  C(13)             -0.00083      -0.93836      -0.33483      -0.31300
     2  C(13)              0.00250       2.81084       1.00298       0.93760
     3  C(13)             -0.01326     -14.90969      -5.32015      -4.97334
     4  N(14)              0.20607      66.58286      23.75842      22.20965
     5  C(13)             -0.01326     -14.90921      -5.31998      -4.97318
     6  C(13)              0.00250       2.81149       1.00321       0.93781
     7  C(13)              0.02101      23.62017       8.42826       7.87884
     8  C(13)              0.00923      10.37084       3.70057       3.45934
     9  O(17)              0.19893    -120.58825     -43.02889     -40.22391
    10  C(13)              0.02100      23.60744       8.42372       7.87459
    11  C(13)              0.00923      10.37155       3.70083       3.45958
    12  H(1)               0.00013       0.60120       0.21452       0.20054
    13  H(1)               0.00004       0.18379       0.06558       0.06131
    14  H(1)              -0.00029      -1.29769      -0.46305      -0.43286
    15  H(1)              -0.00008      -0.36823      -0.13139      -0.12283
    16  H(1)              -0.00008      -0.36837      -0.13144      -0.12287
    17  H(1)              -0.00029      -1.29771      -0.46306      -0.43287
    18  H(1)              -0.00063      -2.83593      -1.01193      -0.94596
    19  H(1)               0.00078       3.48223       1.24255       1.16155
    20  H(1)              -0.00037      -1.63931      -0.58495      -0.54681
    21  H(1)              -0.00021      -0.95399      -0.34041      -0.31822
    22  H(1)              -0.00041      -1.83523      -0.65485      -0.61217
    23  H(1)              -0.00020      -0.90979      -0.32463      -0.30347
    24  H(1)               0.00078       3.48106       1.24213       1.16116
    25  H(1)              -0.00063      -2.83618      -1.01202      -0.94605
    26  H(1)              -0.00037      -1.63930      -0.58494      -0.54681
    27  H(1)              -0.00021      -0.95470      -0.34066      -0.31845
    28  H(1)              -0.00020      -0.90927      -0.32445      -0.30330
    29  H(1)              -0.00041      -1.83571      -0.65503      -0.61233
 --------------------------------------------------------
       Center         ----  Spin Dipole Couplings  ----
                      3XX-RR        3YY-RR        3ZZ-RR
 --------------------------------------------------------
     1   Atom       -0.004211      0.007676     -0.003465
     2   Atom       -0.002684      0.008406     -0.005721
     3   Atom        0.011600     -0.001947     -0.009653
     4   Atom       -0.614947     -0.603374      1.218321
     5   Atom        0.011608     -0.001952     -0.009656
     6   Atom       -0.002683      0.008405     -0.005721
     7   Atom       -0.009304     -0.017778      0.027082
     8   Atom        0.016285     -0.006656     -0.009629
     9   Atom       -1.024263     -1.075226      2.099489
    10   Atom       -0.009306     -0.017773      0.027079
    11   Atom        0.016288     -0.006656     -0.009631
    12   Atom       -0.001770      0.003428     -0.001658
    13   Atom       -0.002835      0.004744     -0.001909
    14   Atom       -0.000042      0.002450     -0.002407
    15   Atom       -0.002049      0.003984     -0.001935
    16   Atom       -0.002048      0.003983     -0.001935
    17   Atom       -0.000042      0.002449     -0.002407
    18   Atom        0.000486     -0.003535      0.003049
    19   Atom        0.004312     -0.002937     -0.001375
    20   Atom       -0.002869     -0.001597      0.004465
    21   Atom        0.004905     -0.005843      0.000938
    22   Atom        0.005477     -0.002453     -0.003024
    23   Atom        0.011921     -0.005106     -0.006816
    24   Atom        0.004313     -0.002938     -0.001375
    25   Atom        0.000483     -0.003537      0.003054
    26   Atom       -0.002869     -0.001594      0.004463
    27   Atom        0.004905     -0.005845      0.000940
    28   Atom        0.011924     -0.005107     -0.006816
    29   Atom        0.005477     -0.002453     -0.003025
 --------------------------------------------------------
                        XY            XZ            YZ
 --------------------------------------------------------
     1   Atom        0.000000      0.000000      0.000689
     2   Atom       -0.006529      0.000490      0.000200
     3   Atom       -0.014594     -0.009259      0.004378
     4   Atom        0.000001      0.000045     -0.004294
     5   Atom        0.014593      0.009258      0.004376
     6   Atom        0.006530     -0.000490      0.000200
     7   Atom       -0.000753      0.024255     -0.007740
     8   Atom       -0.004425     -0.009138      0.002451
     9   Atom       -0.000003      0.000075      0.188507
    10   Atom        0.000752     -0.024249     -0.007741
    11   Atom        0.004425      0.009141      0.002451
    12   Atom        0.000000      0.000000     -0.000180
    13   Atom        0.000000      0.000000      0.002895
    14   Atom       -0.003751     -0.000008     -0.000062
    15   Atom       -0.004682      0.002211     -0.004561
    16   Atom        0.004682     -0.002212     -0.004561
    17   Atom        0.003751      0.000008     -0.000062
    18   Atom        0.002287      0.010382      0.000556
    19   Atom        0.003849      0.003204      0.000867
    20   Atom        0.001452      0.002528      0.006357
    21   Atom        0.001309     -0.008645     -0.001016
    22   Atom        0.002303     -0.001475     -0.000212
    23   Atom       -0.002696     -0.002535     -0.000010
    24   Atom       -0.003847     -0.003203      0.000867
    25   Atom       -0.002290     -0.010384      0.000559
    26   Atom       -0.001451     -0.002529      0.006357
    27   Atom       -0.001310      0.008649     -0.001017
    28   Atom        0.002694      0.002535     -0.000010
    29   Atom       -0.002305      0.001476     -0.000213
 --------------------------------------------------------


 ---------------------------------------------------------------------------------
              Anisotropic Spin Dipole Couplings in Principal Axis System
 ---------------------------------------------------------------------------------

       Atom             a.u.   MegaHertz   Gauss  10(-4) cm-1        Axes

              Baa    -0.0042    -0.565    -0.202    -0.188  1.0000 -0.0000 -0.0001
     1 C(13)  Bbb    -0.0035    -0.471    -0.168    -0.157  0.0001 -0.0615  0.9981
              Bcc     0.0077     1.036     0.370     0.345  0.0000  0.9981  0.0615
 
              Baa    -0.0062    -0.838    -0.299    -0.279 -0.6372 -0.2938  0.7125
     2 C(13)  Bbb    -0.0052    -0.696    -0.248    -0.232  0.6462  0.3001  0.7017
              Bcc     0.0114     1.533     0.547     0.511 -0.4200  0.9075 -0.0014
 
              Baa    -0.0134    -1.802    -0.643    -0.601  0.4747  0.2860  0.8324
     3 C(13)  Bbb    -0.0106    -1.417    -0.506    -0.473  0.3385  0.8137 -0.4726
              Bcc     0.0240     3.219     1.149     1.074  0.8125 -0.5061 -0.2895
 
              Baa    -0.6149   -23.717    -8.463    -7.911  1.0000 -0.0001 -0.0000
     4 N(14)  Bbb    -0.6034   -23.271    -8.304    -7.762  0.0001  1.0000  0.0024
              Bcc     1.2183    46.988    16.767    15.674  0.0000 -0.0024  1.0000
 
              Baa    -0.0134    -1.802    -0.643    -0.601 -0.4744  0.2857  0.8326
     5 C(13)  Bbb    -0.0106    -1.417    -0.506    -0.473 -0.3386  0.8139 -0.4722
              Bcc     0.0240     3.219     1.149     1.074  0.8126  0.5059  0.2894
 
              Baa    -0.0062    -0.838    -0.299    -0.279  0.6373 -0.2939  0.7124
     6 C(13)  Bbb    -0.0052    -0.696    -0.248    -0.232 -0.6461  0.3001  0.7018
              Bcc     0.0114     1.533     0.547     0.511  0.4200  0.9075 -0.0014
 
              Baa    -0.0231    -3.106    -1.108    -1.036  0.7328 -0.5236 -0.4345
     7 C(13)  Bbb    -0.0170    -2.278    -0.813    -0.760  0.5201  0.8428 -0.1383
              Bcc     0.0401     5.384     1.921     1.796  0.4386 -0.1247  0.8900
 
              Baa    -0.0127    -1.706    -0.609    -0.569  0.2695 -0.1854  0.9450
     8 C(13)  Bbb    -0.0074    -0.991    -0.354    -0.331  0.2285  0.9656  0.1243
              Bcc     0.0201     2.698     0.963     0.900  0.9355 -0.1824 -0.3025
 
              Baa    -1.0864    78.610    28.050    26.221  0.0001  0.9983 -0.0591
     9 O(17)  Bbb    -1.0243    74.115    26.446    24.722  1.0000 -0.0001 -0.0000
              Bcc     2.1106  -152.725   -54.496   -50.943  0.0000  0.0591  0.9983
 
              Baa    -0.0231    -3.106    -1.108    -1.036  0.7329  0.5235  0.4345
    10 C(13)  Bbb    -0.0170    -2.277    -0.812    -0.760 -0.5201  0.8429 -0.1382
              Bcc     0.0401     5.383     1.921     1.796 -0.4386 -0.1247  0.8900
 
              Baa    -0.0127    -1.707    -0.609    -0.569 -0.2695 -0.1853  0.9450
    11 C(13)  Bbb    -0.0074    -0.991    -0.354    -0.331 -0.2284  0.9656  0.1242
              Bcc     0.0201     2.698     0.963     0.900  0.9355  0.1824  0.3026
 
              Baa    -0.0018    -0.945    -0.337    -0.315  1.0000 -0.0000 -0.0001
    12 H(1)   Bbb    -0.0017    -0.888    -0.317    -0.296  0.0001  0.0354  0.9994
              Bcc     0.0034     1.833     0.654     0.611  0.0000  0.9994 -0.0354
 
              Baa    -0.0030    -1.597    -0.570    -0.533 -0.0003 -0.3505  0.9366
    13 H(1)   Bbb    -0.0028    -1.513    -0.540    -0.505  1.0000 -0.0001  0.0002
              Bcc     0.0058     3.109     1.110     1.037  0.0000  0.9366  0.3505
 
              Baa    -0.0028    -1.469    -0.524    -0.490  0.8043  0.5812  0.1239
    14 H(1)   Bbb    -0.0024    -1.282    -0.457    -0.428 -0.1040 -0.0677  0.9923
              Bcc     0.0052     2.751     0.982     0.918 -0.5851  0.8109 -0.0060
 
              Baa    -0.0047    -2.517    -0.898    -0.840  0.6861  0.5913  0.4239
    15 H(1)   Bbb    -0.0042    -2.233    -0.797    -0.745 -0.5890  0.1094  0.8007
              Bcc     0.0089     4.750     1.695     1.584 -0.4270  0.7990 -0.4234
 
              Baa    -0.0047    -2.517    -0.898    -0.840  0.6860 -0.5914 -0.4238
    16 H(1)   Bbb    -0.0042    -2.233    -0.797    -0.745  0.5890  0.1094  0.8007
              Bcc     0.0089     4.750     1.695     1.584  0.4271  0.7990 -0.4234
 
              Baa    -0.0028    -1.469    -0.524    -0.490  0.8042 -0.5813 -0.1240
    17 H(1)   Bbb    -0.0024    -1.282    -0.457    -0.428  0.1041 -0.0677  0.9923
              Bcc     0.0052     2.751     0.982     0.918  0.5852  0.8109 -0.0060
 
              Baa    -0.0090    -4.820    -1.720    -1.608  0.7409 -0.2450 -0.6254
    18 H(1)   Bbb    -0.0034    -1.830    -0.653    -0.610  0.1056  0.9620 -0.2518
              Bcc     0.0125     6.650     2.373     2.218  0.6633  0.1205  0.7386
 
              Baa    -0.0047    -2.506    -0.894    -0.836 -0.4444  0.8730  0.2009
    19 H(1)   Bbb    -0.0025    -1.352    -0.482    -0.451 -0.2401 -0.3321  0.9121
              Bcc     0.0072     3.858     1.377     1.287  0.8630  0.3571  0.3573
 
              Baa    -0.0056    -2.996    -1.069    -0.999  0.0567  0.8380 -0.5427
    20 H(1)   Bbb    -0.0036    -1.903    -0.679    -0.635  0.9703 -0.1742 -0.1676
              Bcc     0.0092     4.899     1.748     1.634  0.2350  0.5171  0.8230
 
              Baa    -0.0060    -3.204    -1.143    -1.069 -0.2820  0.9352 -0.2142
    21 H(1)   Bbb    -0.0059    -3.170    -1.131    -1.057  0.5602  0.3418  0.7546
              Bcc     0.0119     6.374     2.274     2.126  0.7789  0.0928 -0.6203
 
              Baa    -0.0034    -1.795    -0.641    -0.599  0.2624 -0.4660  0.8450
    22 H(1)   Bbb    -0.0030    -1.583    -0.565    -0.528 -0.1418  0.8475  0.5115
              Bcc     0.0063     3.378     1.206     1.127  0.9545  0.2540 -0.1562
 
              Baa    -0.0072    -3.857    -1.376    -1.286  0.1565  0.2032  0.9665
    23 H(1)   Bbb    -0.0054    -2.898    -1.034    -0.967  0.1178  0.9678 -0.2226
              Bcc     0.0127     6.755     2.410     2.253  0.9806 -0.1487 -0.1276
 
              Baa    -0.0047    -2.506    -0.894    -0.836  0.4442  0.8732  0.2006
    24 H(1)   Bbb    -0.0025    -1.352    -0.483    -0.451  0.2403 -0.3318  0.9122
              Bcc     0.0072     3.858     1.377     1.287  0.8631 -0.3570 -0.3572
 
              Baa    -0.0090    -4.821    -1.720    -1.608  0.7410  0.2450  0.6252
    25 H(1)   Bbb    -0.0034    -1.831    -0.653    -0.611 -0.1056  0.9620 -0.2519
              Bcc     0.0125     6.652     2.374     2.219 -0.6631  0.1207  0.7387
 
              Baa    -0.0056    -2.995    -1.069    -0.999 -0.0571  0.8379 -0.5429
    26 H(1)   Bbb    -0.0036    -1.903    -0.679    -0.635  0.9703  0.1746  0.1673
              Bcc     0.0092     4.898     1.748     1.634 -0.2350  0.5172  0.8230
 
              Baa    -0.0060    -3.205    -1.144    -1.069  0.2832  0.9345 -0.2158
    27 H(1)   Bbb    -0.0059    -3.171    -1.132    -1.058 -0.5597  0.3437  0.7541
              Bcc     0.0120     6.376     2.275     2.127  0.7788 -0.0928  0.6203
 
              Baa    -0.0072    -3.857    -1.376    -1.287 -0.1565  0.2034  0.9665
    28 H(1)   Bbb    -0.0054    -2.899    -1.034    -0.967 -0.1177  0.9678 -0.2227
              Bcc     0.0127     6.756     2.411     2.253  0.9806  0.1486  0.1276
 
              Baa    -0.0034    -1.796    -0.641    -0.599 -0.2624 -0.4654  0.8453
    29 H(1)   Bbb    -0.0030    -1.583    -0.565    -0.528  0.1421  0.8478  0.5109
              Bcc     0.0063     3.379     1.206     1.127  0.9544 -0.2541  0.1564
 

 ---------------------------------------------------------------------------------

 No NMR shielding tensors so no spin-rotation constants.
 Leave Link  601 at Wed Feb 28 21:10:09 2024, MaxMem=  2147483648 cpu:               5.8 elap:               0.2
 (Enter /software/gaussian-16RevA.03-el7-x86_64/g16/l701.exe)
 ... and contract with generalized density number  0.
 Compute integral second derivatives.
 R6Disp: Adding Grimme-D2 dispersion energy 2nd derivatives to the Hessian.
   1 Symmetry operations used in ECPInt.
 ECPInt:  NShTT=    5253 NPrTT=   21107 LenC2=    5228 LenP2D=   16402.
 LDataN:  DoStor=T MaxTD1= 6 Len=  172
 D2PCM: PCM CHGder 2nd derivatives, FixD1E=F FixD2E=F DoIter=F DoCFld=F I1PDM=0
 GePol: Maximum number of non-zero 2nd derivatives   =     165
 Leave Link  701 at Wed Feb 28 21:10:12 2024, MaxMem=  2147483648 cpu:              76.0 elap:               2.8
 (Enter /software/gaussian-16RevA.03-el7-x86_64/g16/l702.exe)
 L702 exits ... SP integral derivatives will be done elsewhere.
 Leave Link  702 at Wed Feb 28 21:10:12 2024, MaxMem=  2147483648 cpu:               0.5 elap:               0.0
 (Enter /software/gaussian-16RevA.03-el7-x86_64/g16/l703.exe)
 Integral derivatives from FoFJK, PRISM(SPDF).
 Compute integral second derivatives, UseDBF=F ICtDFT=           0.
 Calling FoFJK, ICntrl=    100127 FMM=F ISym2X=0 I1Cent= 0 IOpClX= 1 NMat=1 NMatS=1 NMatT=0.
 FoFJK:  IHMeth= 1 ICntrl=  100127 DoSepK=T KAlg= 0 I1Cent=           0 FoldK=F
 IRaf=         1 NMat=       1 IRICut=       1 DoRegI=T DoRafI=F ISym2E= 0 IDoP0=0 IntGTp=1.
 FoFCou: FMM=F IPFlag=           0 FMFlag=      100000 FMFlg1=         800
         NFxFlg=           0 DoJE=F BraDBF=F KetDBF=F FulRan=T
         wScrn=  0.000000 ICntrl=    100527 IOpCl=  0 I1Cent=           0 NGrid=           0
         NMat0=    1 NMatS0=      1 NMatT0=    0 NMatD0=    1 NMtDS0=    0 NMtDT0=    0
 Symmetry not used in FoFCou.
 Leave Link  703 at Wed Feb 28 21:10:48 2024, MaxMem=  2147483648 cpu:            1002.4 elap:              35.8
 (Enter /software/gaussian-16RevA.03-el7-x86_64/g16/l716.exe)
 Dipole        = 2.05534017D-04 1.50322348D+00 1.06246957D-01
 Polarizability= 1.30079125D+02 9.26616359D-04 1.26744296D+02
                 4.61305107D-05-1.71317572D-01 1.14550237D+02
 -------------------------------------------------------------------
 Center     Atomic                   Forces (Hartrees/Bohr)
 Number     Number              X              Y              Z
 -------------------------------------------------------------------
      1        6           0.000004953   -0.005146006   -0.002777646
      2        6           0.003686984   -0.001776180    0.002827670
      3        6           0.002323921   -0.000430818   -0.000676903
      4        7          -0.000002378   -0.003639034    0.003111284
      5        6          -0.002318051   -0.000429051   -0.000647072
      6        6          -0.003698264   -0.001769101    0.002819367
      7        6          -0.001285415    0.000617940   -0.004644456
      8        6          -0.003278182    0.002594805    0.002713881
      9        8           0.000022105    0.003501576   -0.001530744
     10        6           0.001276253    0.000625789   -0.004632903
     11        6           0.003273350    0.002606283    0.002708535
     12        1           0.000000321    0.005241763   -0.002199393
     13        1          -0.000001669    0.000484378    0.005205458
     14        1          -0.004529284    0.002832932    0.001632116
     15        1           0.000163900    0.000210058   -0.005204008
     16        1          -0.000163075    0.000211023   -0.005202038
     17        1           0.004529447    0.002833708    0.001631485
     18        1          -0.000572902   -0.006073832    0.002067262
     19        1           0.005720403    0.001919919    0.000749726
     20        1          -0.003474630    0.003408295    0.003609632
     21        1          -0.001867228    0.000112322   -0.006374151
     22        1           0.005359511    0.002531247    0.000104546
     23        1           0.001168681   -0.006185482    0.002271039
     24        1          -0.005722744    0.001918309    0.000752972
     25        1           0.000573194   -0.006073606    0.002065290
     26        1           0.003474885    0.003409956    0.003612050
     27        1           0.001861532    0.000111603   -0.006371558
     28        1          -0.001168519   -0.006181100    0.002274847
     29        1          -0.005357098    0.002532304    0.000103711
 -------------------------------------------------------------------
 Cartesian Forces:  Max     0.006374151 RMS     0.003189014
 FormGI is forming the generalized inverse of G from B-inverse, IUseBI=4.
 Leave Link  716 at Wed Feb 28 21:10:48 2024, MaxMem=  2147483648 cpu:               1.1 elap:               0.1
 (Enter /software/gaussian-16RevA.03-el7-x86_64/g16/l103.exe)

 GradGradGradGradGradGradGradGradGradGradGradGradGradGradGradGradGradGrad
 Berny optimization.
 Red2BG is reusing G-inverse.
 Internal  Forces:  Max     0.006674223 RMS     0.002018440
 Step   1 in ReCalcFC=50 IGetFC= 4 recover analytic Hessian.
 Search for a local minimum.
 Step number   1 out of a maximum of  174
 All quantities printed in internal units (Hartrees-Bohrs-Radians)
 RMS Force = .20184D-02 SwitMx=.10000D-02 MixMth= 1
 Mixed Optimization -- RFO/linear search
 Second derivative matrix not updated -- analytic derivatives used.
 ITU=  0
     Eigenvalues ---    0.00221   0.00261   0.00352   0.00376   0.00492
     Eigenvalues ---    0.00645   0.00764   0.01416   0.02475   0.02636
     Eigenvalues ---    0.03900   0.03963   0.04025   0.04389   0.04481
     Eigenvalues ---    0.04539   0.04547   0.04624   0.04675   0.04689
     Eigenvalues ---    0.04781   0.04804   0.04904   0.05157   0.05787
     Eigenvalues ---    0.06126   0.06295   0.06873   0.07216   0.07306
     Eigenvalues ---    0.07707   0.08459   0.09029   0.10673   0.11405
     Eigenvalues ---    0.12317   0.12479   0.12767   0.12790   0.13443
     Eigenvalues ---    0.14424   0.14764   0.14822   0.15346   0.15533
     Eigenvalues ---    0.15779   0.15921   0.16194   0.17781   0.19016
     Eigenvalues ---    0.21928   0.22140   0.26150   0.26191   0.28622
     Eigenvalues ---    0.28846   0.29066   0.29746   0.30263   0.31836
     Eigenvalues ---    0.34546   0.34667   0.34873   0.35218   0.35372
     Eigenvalues ---    0.35412   0.35681   0.35788   0.35878   0.35884
     Eigenvalues ---    0.36044   0.36099   0.36119   0.36196   0.36361
     Eigenvalues ---    0.36382   0.36442   0.36919   0.36996   0.38037
     Eigenvalues ---    0.63474
 RFO step:  Lambda=-2.03725719D-03 EMin= 2.20916129D-03
 Linear search not attempted -- first point.
 Iteration  1 RMS(Cart)=  0.01099231 RMS(Int)=  0.00009649
 Iteration  2 RMS(Cart)=  0.00010227 RMS(Int)=  0.00003799
 Iteration  3 RMS(Cart)=  0.00000001 RMS(Int)=  0.00003799
 ITry= 1 IFail=0 DXMaxC= 4.07D-02 DCOld= 1.00D+10 DXMaxT= 3.00D-01 DXLimC= 3.00D+00 Rises=F
 Variable       Old X    -DE/DX   Delta X   Delta X   Delta X     New X
                                 (Linear)    (Quad)   (Total)
    R1        2.87730   0.00042   0.00000   0.00062   0.00059   2.87789
    R2        2.87731   0.00041   0.00000   0.00061   0.00058   2.87789
    R3        2.06786   0.00568   0.00000   0.01586   0.01586   2.08372
    R4        2.07109   0.00523   0.00000   0.01488   0.01488   2.08597
    R5        2.89909   0.00165   0.00000   0.00500   0.00500   2.90409
    R6        2.06966   0.00558   0.00000   0.01542   0.01542   2.08508
    R7        2.07375   0.00521   0.00000   0.01483   0.01483   2.08858
    R8        2.82120  -0.00020   0.00000  -0.00353  -0.00350   2.81770
    R9        2.90108   0.00184   0.00000   0.00541   0.00541   2.90649
   R10        2.88880   0.00210   0.00000   0.00624   0.00624   2.89504
   R11        2.82120  -0.00022   0.00000  -0.00354  -0.00351   2.81770
   R12        2.40089  -0.00364   0.00000  -0.00681  -0.00681   2.39408
   R13        2.89907   0.00166   0.00000   0.00502   0.00502   2.90409
   R14        2.90115   0.00183   0.00000   0.00533   0.00533   2.90649
   R15        2.88877   0.00211   0.00000   0.00626   0.00626   2.89504
   R16        2.07376   0.00520   0.00000   0.01482   0.01482   2.08858
   R17        2.06966   0.00558   0.00000   0.01542   0.01542   2.08508
   R18        2.06466   0.00644   0.00000   0.01776   0.01776   2.08241
   R19        2.06756   0.00608   0.00000   0.01679   0.01679   2.08435
   R20        2.06446   0.00606   0.00000   0.01686   0.01686   2.08133
   R21        2.06622   0.00664   0.00000   0.01816   0.01816   2.08437
   R22        2.06772   0.00592   0.00000   0.01651   0.01651   2.08423
   R23        2.06026   0.00667   0.00000   0.01790   0.01790   2.07815
   R24        2.06755   0.00608   0.00000   0.01679   0.01679   2.08435
   R25        2.06466   0.00644   0.00000   0.01776   0.01776   2.08241
   R26        2.06446   0.00606   0.00000   0.01687   0.01687   2.08133
   R27        2.06623   0.00663   0.00000   0.01815   0.01815   2.08437
   R28        2.06026   0.00667   0.00000   0.01790   0.01790   2.07815
   R29        2.06773   0.00592   0.00000   0.01650   0.01650   2.08423
    A1        1.90226  -0.00025   0.00000  -0.00023  -0.00023   1.90203
    A2        1.91812   0.00002   0.00000  -0.00172  -0.00171   1.91641
    A3        1.93475   0.00012   0.00000   0.00184   0.00183   1.93658
    A4        1.91812   0.00002   0.00000  -0.00172  -0.00171   1.91641
    A5        1.93471   0.00012   0.00000   0.00187   0.00186   1.93658
    A6        1.85563  -0.00001   0.00000  -0.00011  -0.00010   1.85552
    A7        1.98098  -0.00001   0.00000   0.00106   0.00105   1.98203
    A8        1.94086  -0.00015   0.00000  -0.00058  -0.00059   1.94027
    A9        1.89564  -0.00014   0.00000  -0.00257  -0.00256   1.89309
   A10        1.88264   0.00025   0.00000   0.00241   0.00242   1.88506
   A11        1.89652   0.00004   0.00000  -0.00006  -0.00006   1.89646
   A12        1.86319   0.00002   0.00000  -0.00032  -0.00032   1.86286
   A13        1.92184   0.00013   0.00000   0.00267   0.00270   1.92454
   A14        1.94495   0.00008   0.00000  -0.00044  -0.00045   1.94450
   A15        1.90944  -0.00030   0.00000  -0.00349  -0.00350   1.90594
   A16        1.90584  -0.00012   0.00000  -0.00158  -0.00158   1.90426
   A17        1.87387  -0.00001   0.00000   0.00158   0.00156   1.87543
   A18        1.90647   0.00023   0.00000   0.00134   0.00135   1.90781
   A19        2.16599   0.00009   0.00000   0.00397   0.00383   2.16982
   A20        2.02094   0.00011   0.00000   0.00568   0.00536   2.02630
   A21        2.02108   0.00006   0.00000   0.00555   0.00522   2.02631
   A22        1.92184   0.00013   0.00000   0.00267   0.00269   1.92454
   A23        1.90583  -0.00012   0.00000  -0.00157  -0.00157   1.90426
   A24        1.87400  -0.00002   0.00000   0.00145   0.00144   1.87544
   A25        1.94490   0.00008   0.00000  -0.00039  -0.00040   1.94450
   A26        1.90942  -0.00030   0.00000  -0.00347  -0.00348   1.90594
   A27        1.90642   0.00023   0.00000   0.00138   0.00139   1.90781
   A28        1.98098  -0.00001   0.00000   0.00105   0.00104   1.98202
   A29        1.89563  -0.00015   0.00000  -0.00256  -0.00255   1.89308
   A30        1.94087  -0.00015   0.00000  -0.00058  -0.00060   1.94027
   A31        1.89651   0.00004   0.00000  -0.00005  -0.00006   1.89646
   A32        1.88264   0.00025   0.00000   0.00242   0.00243   1.88507
   A33        1.86320   0.00002   0.00000  -0.00033  -0.00033   1.86286
   A34        1.91370   0.00003   0.00000   0.00024   0.00024   1.91394
   A35        1.91476   0.00011   0.00000   0.00245   0.00245   1.91721
   A36        1.96253   0.00001   0.00000  -0.00106  -0.00106   1.96148
   A37        1.89398   0.00002   0.00000   0.00078   0.00078   1.89475
   A38        1.89382  -0.00009   0.00000  -0.00173  -0.00174   1.89208
   A39        1.88362  -0.00008   0.00000  -0.00067  -0.00067   1.88295
   A40        1.93095  -0.00025   0.00000  -0.00143  -0.00143   1.92952
   A41        1.90710   0.00041   0.00000   0.00124   0.00124   1.90834
   A42        1.93653   0.00028   0.00000   0.00429   0.00429   1.94082
   A43        1.89512  -0.00020   0.00000  -0.00281  -0.00281   1.89231
   A44        1.89051   0.00015   0.00000   0.00257   0.00257   1.89308
   A45        1.90293  -0.00041   0.00000  -0.00408  -0.00408   1.89885
   A46        1.91472   0.00012   0.00000   0.00248   0.00248   1.91720
   A47        1.91373   0.00003   0.00000   0.00021   0.00021   1.91394
   A48        1.96253   0.00001   0.00000  -0.00105  -0.00105   1.96148
   A49        1.89399   0.00002   0.00000   0.00077   0.00076   1.89475
   A50        1.88361  -0.00009   0.00000  -0.00066  -0.00066   1.88295
   A51        1.89383  -0.00009   0.00000  -0.00174  -0.00174   1.89209
   A52        1.93086  -0.00024   0.00000  -0.00134  -0.00134   1.92952
   A53        1.93658   0.00027   0.00000   0.00425   0.00425   1.94082
   A54        1.90714   0.00041   0.00000   0.00120   0.00120   1.90834
   A55        1.89048   0.00015   0.00000   0.00260   0.00259   1.89308
   A56        1.89514  -0.00020   0.00000  -0.00283  -0.00283   1.89232
   A57        1.90294  -0.00040   0.00000  -0.00409  -0.00409   1.89885
    D1        1.03268  -0.00007   0.00000  -0.00266  -0.00267   1.03002
    D2       -3.12398   0.00014   0.00000   0.00084   0.00083  -3.12316
    D3       -1.07870  -0.00001   0.00000  -0.00145  -0.00146  -1.08016
    D4        3.13567  -0.00019   0.00000  -0.00596  -0.00596   3.12972
    D5       -1.02099   0.00001   0.00000  -0.00246  -0.00246  -1.02346
    D6        1.02429  -0.00014   0.00000  -0.00475  -0.00475   1.01954
    D7       -1.10134  -0.00012   0.00000  -0.00603  -0.00603  -1.10737
    D8        1.02518   0.00008   0.00000  -0.00254  -0.00254   1.02264
    D9        3.07046  -0.00007   0.00000  -0.00483  -0.00483   3.06564
   D10       -1.03269   0.00007   0.00000   0.00265   0.00266  -1.03003
   D11        1.07869   0.00001   0.00000   0.00145   0.00146   1.08015
   D12        3.12398  -0.00014   0.00000  -0.00085  -0.00083   3.12314
   D13       -3.13568   0.00019   0.00000   0.00595   0.00595  -3.12973
   D14       -1.02430   0.00014   0.00000   0.00475   0.00475  -1.01955
   D15        1.02099  -0.00001   0.00000   0.00245   0.00246   1.02344
   D16        1.10135   0.00012   0.00000   0.00601   0.00601   1.10736
   D17       -3.07046   0.00007   0.00000   0.00481   0.00481  -3.06565
   D18       -1.02517  -0.00009   0.00000   0.00251   0.00252  -1.02265
   D19       -0.80325   0.00002   0.00000   0.00777   0.00775  -0.79549
   D20        1.31439   0.00001   0.00000   0.00731   0.00729   1.32168
   D21       -2.85876   0.00014   0.00000   0.00637   0.00636  -2.85240
   D22       -2.96187   0.00004   0.00000   0.00602   0.00600  -2.95586
   D23       -0.84424   0.00003   0.00000   0.00555   0.00555  -0.83869
   D24        1.26580   0.00016   0.00000   0.00461   0.00461   1.27041
   D25        1.30765  -0.00013   0.00000   0.00516   0.00514   1.31279
   D26       -2.85790  -0.00015   0.00000   0.00469   0.00469  -2.85322
   D27       -0.74787  -0.00001   0.00000   0.00375   0.00375  -0.74412
   D28        0.63063  -0.00018   0.00000  -0.01483  -0.01485   0.61578
   D29       -2.93617   0.00055   0.00000   0.02739   0.02741  -2.90875
   D30       -1.51018  -0.00028   0.00000  -0.01497  -0.01500  -1.52518
   D31        1.20621   0.00045   0.00000   0.02725   0.02727   1.23348
   D32        2.70801  -0.00048   0.00000  -0.01660  -0.01662   2.69139
   D33       -0.85879   0.00025   0.00000   0.02563   0.02564  -0.83314
   D34        1.19589  -0.00017   0.00000  -0.00764  -0.00765   1.18824
   D35       -3.00890  -0.00006   0.00000  -0.00506  -0.00507  -3.01397
   D36       -0.90037  -0.00015   0.00000  -0.00782  -0.00783  -0.90820
   D37       -2.96037  -0.00004   0.00000  -0.00563  -0.00562  -2.96599
   D38       -0.88198   0.00006   0.00000  -0.00306  -0.00304  -0.88502
   D39        1.22655  -0.00002   0.00000  -0.00582  -0.00580   1.22075
   D40       -0.91588   0.00000   0.00000  -0.00388  -0.00388  -0.91976
   D41        1.16251   0.00011   0.00000  -0.00130  -0.00130   1.16121
   D42       -3.01214   0.00002   0.00000  -0.00406  -0.00406  -3.01621
   D43        1.09654  -0.00009   0.00000   0.01013   0.01014   1.10668
   D44       -3.08787   0.00012   0.00000   0.01531   0.01532  -3.07255
   D45       -0.98907   0.00005   0.00000   0.01368   0.01369  -0.97537
   D46       -0.98880  -0.00007   0.00000   0.00796   0.00796  -0.98084
   D47        1.10998   0.00014   0.00000   0.01314   0.01314   1.12312
   D48       -3.07440   0.00007   0.00000   0.01151   0.01151  -3.06290
   D49       -3.05339  -0.00004   0.00000   0.00822   0.00822  -3.04517
   D50       -0.95461   0.00017   0.00000   0.01340   0.01340  -0.94121
   D51        1.14419   0.00010   0.00000   0.01177   0.01177   1.15596
   D52       -0.63063   0.00018   0.00000   0.01482   0.01484  -0.61579
   D53        1.51011   0.00029   0.00000   0.01503   0.01505   1.52516
   D54       -2.70806   0.00048   0.00000   0.01664   0.01666  -2.69140
   D55        2.93620  -0.00056   0.00000  -0.02744  -0.02745   2.90874
   D56       -1.20625  -0.00045   0.00000  -0.02723  -0.02725  -1.23349
   D57        0.85876  -0.00026   0.00000  -0.02562  -0.02564   0.83313
   D58        0.80325  -0.00002   0.00000  -0.00775  -0.00773   0.79552
   D59       -1.30763   0.00014   0.00000  -0.00515  -0.00513  -1.31276
   D60        2.96188  -0.00004   0.00000  -0.00600  -0.00599   2.95589
   D61       -1.31434  -0.00001   0.00000  -0.00732  -0.00731  -1.32165
   D62        2.85797   0.00015   0.00000  -0.00471  -0.00471   2.85326
   D63        0.84429  -0.00002   0.00000  -0.00557  -0.00557   0.83872
   D64        2.85891  -0.00015   0.00000  -0.00648  -0.00647   2.85243
   D65        0.74803   0.00001   0.00000  -0.00388  -0.00387   0.74415
   D66       -1.26564  -0.00017   0.00000  -0.00474  -0.00474  -1.27038
   D67        0.88245  -0.00007   0.00000   0.00279   0.00278   0.88523
   D68        2.96084   0.00004   0.00000   0.00538   0.00537   2.96620
   D69       -1.22604   0.00001   0.00000   0.00552   0.00551  -1.22053
   D70        3.00933   0.00006   0.00000   0.00482   0.00484   3.01417
   D71       -1.19546   0.00017   0.00000   0.00741   0.00742  -1.18804
   D72        0.90084   0.00015   0.00000   0.00756   0.00757   0.90841
   D73       -1.16217  -0.00010   0.00000   0.00115   0.00115  -1.16101
   D74        0.91622   0.00000   0.00000   0.00374   0.00374   0.91997
   D75        3.01253  -0.00002   0.00000   0.00388   0.00389   3.01642
   D76        0.98906   0.00007   0.00000  -0.00811  -0.00810   0.98096
   D77        3.07467  -0.00007   0.00000  -0.01167  -0.01166   3.06301
   D78       -1.10978  -0.00013   0.00000  -0.01323  -0.01323  -1.12300
   D79       -1.09634   0.00010   0.00000  -0.01022  -0.01022  -1.10656
   D80        0.98927  -0.00004   0.00000  -0.01377  -0.01378   0.97549
   D81        3.08801  -0.00011   0.00000  -0.01534  -0.01535   3.07266
   D82        3.05369   0.00004   0.00000  -0.00841  -0.00841   3.04528
   D83       -1.14389  -0.00010   0.00000  -0.01197  -0.01196  -1.15585
   D84        0.95485  -0.00017   0.00000  -0.01353  -0.01353   0.94132
         Item               Value     Threshold  Converged?
 Maximum Force            0.006674     0.000450     NO 
 RMS     Force            0.002018     0.000300     NO 
 Maximum Displacement     0.040662     0.001800     NO 
 RMS     Displacement     0.011012     0.001200     NO 
 Predicted change in Energy=-1.034167D-03
 Lowest energy point so far.  Saving SCF results.
 Step   1 in ReCalcFC=50 IGetFC= 0 compute gradient.
 GradGradGradGradGradGradGradGradGradGradGradGradGradGradGradGradGradGrad

 Leave Link  103 at Wed Feb 28 21:10:48 2024, MaxMem=  2147483648 cpu:               1.4 elap:               0.1
 (Enter /software/gaussian-16RevA.03-el7-x86_64/g16/l202.exe)
                          Input orientation:                          
 ---------------------------------------------------------------------
 Center     Atomic      Atomic             Coordinates (Angstroms)
 Number     Number       Type             X           Y           Z
 ---------------------------------------------------------------------
      1          6           0        0.000069    2.119186   -0.001234
      2          6           0       -1.239606    1.385312   -0.495093
      3          6           0       -1.318470   -0.074683   -0.021930
      4          7           0        0.000004   -0.747614   -0.200964
      5          6           0        1.318503   -0.074741   -0.021901
      6          6           0        1.239713    1.385251   -0.495082
      7          6           0        1.732682   -0.164217    1.456624
      8          6           0        2.339320   -0.828282   -0.880443
      9          8           0       -0.000027   -2.010236   -0.097031
     10          6           0       -1.732707   -0.164157    1.456578
     11          6           0       -2.339288   -0.828174   -0.880518
     12          1           0        0.000095    3.152788   -0.385322
     13          1           0        0.000068    2.197562    1.099828
     14          1           0       -2.161491    1.898657   -0.172538
     15          1           0       -1.237642    1.399243   -1.600235
     16          1           0        1.237749    1.399168   -1.600224
     17          1           0        2.161620    1.898558   -0.172532
     18          1           0        1.653687   -1.207917    1.801267
     19          1           0        2.778673    0.165796    1.573147
     20          1           0        1.104966    0.465236    2.106873
     21          1           0        2.010824   -0.861506   -1.932870
     22          1           0        3.310428   -0.307411   -0.834717
     23          1           0        2.473614   -1.860173   -0.524730
     24          1           0       -2.778756    0.165699    1.573031
     25          1           0       -1.653572   -1.207830    1.801273
     26          1           0       -1.105128    0.465428    2.106832
     27          1           0       -2.010698   -0.861499   -1.932912
     28          1           0       -2.473724   -1.860030   -0.524755
     29          1           0       -3.310347   -0.307199   -0.834914
 ---------------------------------------------------------------------
                    Distance matrix (angstroms):
                    1          2          3          4          5
     1  C    0.000000
     2  C    1.522913   0.000000
     3  C    2.559694   1.536778   0.000000
     4  N    2.873749   2.484455   1.491061   0.000000
     5  C    2.559689   2.983218   2.636973   1.491060   0.000000
     6  C    1.522913   2.479319   2.983216   2.484451   1.536778
     7  C    3.215777   3.878754   3.391706   2.467817   1.538046
     8  C    3.864281   4.225778   3.832021   2.437334   1.531987
     9  O    4.130533   3.636586   2.343139   1.266893   2.343141
    10  C    3.215802   2.540280   1.538046   2.467824   3.391722
    11  C    3.864280   2.501474   1.531989   2.437329   3.832013
    12  H    1.102659   2.161685   3.505315   3.904757   3.505313
    13  H    1.103848   2.177227   2.856568   3.219647   2.856556
    14  H    2.179522   1.103375   2.151148   3.416961   4.003417
    15  H    2.146404   1.105231   2.161027   2.845826   3.346288
    16  H    2.146403   2.712710   3.346268   2.845807   2.161026
    17  H    2.179524   3.454824   4.003422   3.416960   2.151150
    18  H    4.129536   4.513231   3.666331   2.637323   2.172643
    19  H    3.743668   4.680962   4.403259   3.420934   2.175807
    20  H    2.898355   3.621297   3.270529   2.831618   2.206547
    21  H    4.081529   4.204841   3.918544   2.656288   2.179475
    22  H    4.188262   4.866566   4.705474   3.399166   2.163925
    23  H    4.714633   4.931739   4.221456   2.731549   2.185151
    24  H    3.743833   2.851942   2.175803   3.420922   4.403311
    25  H    4.129478   3.488416   2.172644   2.637245   3.666208
    26  H    2.898330   2.763021   2.206550   2.831733   3.270668
    27  H    4.081549   2.776700   2.179474   2.656226   3.918485
    28  H    4.714645   3.472199   2.185156   2.731600   4.221505
    29  H    4.188224   2.695930   2.163926   3.399159   4.705452
                    6          7          8          9         10
     6  C    0.000000
     7  C    2.540280   0.000000
     8  C    2.501473   2.504171   0.000000
     9  O    3.636583   2.970507   2.735561   0.000000
    10  C    3.878778   3.465388   4.741743   2.970503   0.000000
    11  C    4.225761   4.741731   4.678608   2.735556   2.504172
    12  H    2.161686   4.170988   4.643924   5.171067   4.171010
    13  H    2.177224   2.950806   4.306891   4.374705   2.950847
    14  H    3.454823   4.698318   5.309860   4.467334   2.663284
    15  H    2.712719   4.540002   4.274883   3.926304   3.468922
    16  H    1.105232   3.468926   2.587098   3.926286   4.540004
    17  H    1.103374   2.663302   2.822830   4.467336   4.698359
    18  H    3.488425   1.101966   2.793883   2.642352   3.560324
    19  H    2.851849   1.102989   2.683529   3.904586   4.524932
    20  H    2.763106   1.101391   3.481505   3.493732   2.978491
    21  H    2.776647   3.471634   1.103003   2.955234   5.097909
    22  H    2.695982   2.785683   1.102927   3.795116   5.541097
    23  H    3.472199   2.711275   1.099712   2.514825   4.949261
    24  H    4.681078   4.524982   5.762138   3.904502   1.102989
    25  H    4.513137   3.560144   4.824815   2.642276   1.101966
    26  H    3.621368   2.978655   4.739379   3.493877   1.101391
    27  H    4.204808   5.097847   4.475650   2.955140   3.471629
    28  H    4.931768   4.949292   4.935221   2.514893   2.711231
    29  H    4.866510   5.541094   5.673828   3.795131   2.785740
                   11         12         13         14         15
    11  C    0.000000
    12  H    4.643920   0.000000
    13  H    4.306906   1.765822   0.000000
    14  H    2.822845   2.508101   2.525983   0.000000
    15  H    2.587084   2.466359   3.075643   1.772351   0.000000
    16  H    4.274837   2.466365   3.075641   3.720566   2.475391
    17  H    5.309848   2.508100   2.525988   4.323111   3.720569
    18  H    4.824938   5.150853   3.850164   5.301159   5.169843
    19  H    5.762116   4.525287   3.474587   5.518645   5.265219
    20  H    4.739230   3.828148   2.288208   4.233220   4.483619
    21  H    4.475716   4.748947   4.753767   5.303346   3.971670
    22  H    5.673851   4.809702   4.579939   5.936927   4.917685
    23  H    4.935143   5.591736   5.022234   5.978046   5.055089
    24  H    2.683434   4.525468   3.474802   2.535976   3.737149
    25  H    2.793984   5.150805   3.850097   3.715396   4.305819
    26  H    3.481497   3.828088   2.288188   2.892331   3.825169
    27  H    1.103003   4.748981   4.753792   3.277211   2.412311
    28  H    1.099712   5.591740   5.022247   3.788044   3.647933
    29  H    1.102927   4.809643   4.579945   2.573794   2.791732
                   16         17         18         19         20
    16  H    0.000000
    17  H    1.772352   0.000000
    18  H    4.305814   3.715382   0.000000
    19  H    3.737103   2.535865   1.790173   0.000000
    20  H    3.825236   2.892511   1.787157   1.782084   0.000000
    21  H    2.412250   3.277115   3.767138   3.733242   4.347453
    22  H    2.791846   2.573819   3.241005   2.510877   3.756860
    23  H    3.647924   3.788065   2.551075   2.932355   3.769093
    24  H    5.265293   5.518796   4.646015   5.557429   3.931667
    25  H    5.169754   5.301060   3.307259   4.645825   3.240690
    26  H    4.483660   4.233321   3.241066   3.931731   2.210094
    27  H    3.971613   5.303309   5.243264   6.023775   5.271380
    28  H    5.055100   5.978081   4.782379   6.007732   5.013916
    29  H    4.917577   5.936879   5.692308   6.564956   5.361507
                   21         22         23         24         25
    21  H    0.000000
    22  H    1.789394   0.000000
    23  H    1.787279   1.790927   0.000000
    24  H    6.023833   6.565001   6.007674   0.000000
    25  H    5.243239   5.692143   4.782207   1.790171   0.000000
    26  H    5.271537   5.361634   5.014073   1.782081   1.787162
    27  H    4.021522   5.461449   4.805141   3.733187   3.767176
    28  H    4.805311   5.996925   4.947338   2.932120   2.551160
    29  H    5.461467   6.620774   5.996844   2.510861   3.241221
                   26         27         28         29
    26  H    0.000000
    27  H    4.347450   0.000000
    28  H    3.769093   1.787278   0.000000
    29  H    3.756836   1.789395   1.790927   0.000000
 Symmetry turned off by external request.
 Stoichiometry    C9H18NO(2)
 Framework group  C1[X(C9H18NO)]
 Deg. of freedom    81
 Full point group                 C1      NOp   1
 Rotational constants (GHZ):           1.4847602           1.0678098           0.8590385
 Leave Link  202 at Wed Feb 28 21:10:48 2024, MaxMem=  2147483648 cpu:               0.3 elap:               0.0
 (Enter /software/gaussian-16RevA.03-el7-x86_64/g16/l301.exe)
 Standard basis: def2SVPP (5D, 7F)
 Ernie: Thresh=  0.10000D-02 Tol=  0.10000D-05 Strict=F.
   190 basis functions,   347 primitive gaussians,   201 cartesian basis functions
    44 alpha electrons       43 beta electrons
       nuclear repulsion energy       716.5403976483 Hartrees.
 IExCor= 4639 DFT=T Ex+Corr=wB97XD ExCW=0 ScaHFX=  1.000000
 ScaDFX=  1.000000  1.000000  1.000000  1.000000 ScalE2=  1.000000  1.000000
 IRadAn=      5 IRanWt=     -1 IRanGd=            0 ICorTp=0 IEmpDi=121
 HFx  wShort=  0.000000 wLong=  0.200000 cFull=  0.222036 cShort=  0.000000 cLong=  0.777964
 DFx  wShort=  0.000000 wLong=  0.200000 cFull=  0.000000 cShort=  0.000000 cLong=  1.000000
 NAtoms=   29 NActive=   29 NUniq=   29 SFac= 1.00D+00 NAtFMM=   60 NAOKFM=F Big=F
 Integral buffers will be    131072 words long.
 Raffenetti 2 integral format.
 Two-electron integral symmetry is turned off.
 R6Disp:  Grimme-D2 Dispersion energy=       -0.0257166535 Hartrees.
 Nuclear repulsion after empirical dispersion term =      716.5146809948 Hartrees.
 Force inversion solution in PCM.
 ------------------------------------------------------------------------------
 Polarizable Continuum Model (PCM)
 =================================
 Model                : PCM.
 Atomic radii         : UFF (Universal Force Field).
 Polarization charges : Total charges.
 Charge compensation  : None.
 Solution method      : Matrix inversion.
 Cavity type          : Scaled VdW (van der Waals Surface) (Alpha=1.100).
 Cavity algorithm     : GePol (No added spheres)
                        Default sphere list used, NSphG=   29.
                        Lebedev-Laikov grids with approx.  5.0 points / Ang**2.
                        Smoothing algorithm: York/Karplus (Gamma=1.0000).
                        Polarization charges: spherical gaussians, with
                                              point-specific exponents (IZeta= 3).
                        Self-potential: point-specific (ISelfS= 7).
                        Self-field    : sphere-specific E.n sum rule (ISelfD= 2).
 1st derivatives      : Analytical E(r).r(x)/FMM algorithm (CHGder, D1EAlg=3).
                        Cavity 1st derivative terms included.
 Solvent              : TetraHydroFuran, Eps=   7.425700 Eps(inf)=   1.974025
 ------------------------------------------------------------------------------
 GePol: Number of generator spheres                  =      29
 GePol: Total number of spheres                      =      29
 GePol: Number of exposed spheres                    =      29 (100.00%)
 GePol: Number of points                             =    1749
 GePol: Average weight of points                     =       0.14
 GePol: Minimum weight of points                     =   0.25D-09
 GePol: Maximum weight of points                     =    0.20577
 GePol: Number of points with low weight             =     100
 GePol: Fraction of low-weight points (<1% of avg)   =       5.72%
 GePol: Cavity surface area                          =    236.515 Ang**2
 GePol: Cavity volume                                =    256.540 Ang**3
 Leave Link  301 at Wed Feb 28 21:10:48 2024, MaxMem=  2147483648 cpu:               2.5 elap:               0.1
 (Enter /software/gaussian-16RevA.03-el7-x86_64/g16/l302.exe)
 NPDir=0 NMtPBC=     1 NCelOv=     1 NCel=       1 NClECP=     1 NCelD=      1
         NCelK=      1 NCelE2=     1 NClLst=     1 CellRange=     0.0.
 One-electron integrals computed using PRISM.
   1 Symmetry operations used in ECPInt.
 ECPInt:  NShTT=    5253 NPrTT=   21107 LenC2=    5228 LenP2D=   16397.
 LDataN:  DoStor=T MaxTD1= 4 Len=   56
 NBasis=   190 RedAO= T EigKep=  1.01D-03  NBF=   190
 NBsUse=   190 1.00D-06 EigRej= -1.00D+00 NBFU=   190
 Precomputing XC quadrature grid using
 IXCGrd= 4 IRadAn=           5 IRanWt=          -1 IRanGd=           0 AccXCQ= 0.00D+00.
 Generated NRdTot=       0 NPtTot=           0 NUsed=           0 NTot=          32
 NSgBfM=   201   201   201   201   201 MxSgAt=    29 MxSgA2=    29.
 Leave Link  302 at Wed Feb 28 21:10:48 2024, MaxMem=  2147483648 cpu:               7.1 elap:               0.3
 (Enter /software/gaussian-16RevA.03-el7-x86_64/g16/l303.exe)
 DipDrv:  MaxL=1.
 Leave Link  303 at Wed Feb 28 21:10:48 2024, MaxMem=  2147483648 cpu:               2.4 elap:               0.1
 (Enter /software/gaussian-16RevA.03-el7-x86_64/g16/l401.exe)
 Initial guess from the checkpoint file:  "TEMPO-cavity-in-THF-wB97XD.chk"
 B after Tr=     0.000032   -0.001035    0.001423
         Rot=    1.000000   -0.000469    0.000002   -0.000004 Ang=  -0.05 deg.
 Guess basis will be translated and rotated to current coordinates.
 JPrj=2 DoOrth=T DoCkMO=T.
 Initial guess <Sx>= 0.0000 <Sy>= 0.0000 <Sz>= 0.5000 <S**2>= 0.7539 S= 0.5019
 Generating alternative initial guess.
 ExpMin= 1.22D-01 ExpMax= 2.27D+03 ExpMxC= 3.41D+02 IAcc=2 IRadAn=         4 AccDes= 0.00D+00
 Harris functional with IExCor= 4639 and IRadAn=       4 diagonalized for initial guess.
 HarFok:  IExCor= 4639 AccDes= 0.00D+00 IRadAn=         4 IDoV= 1 UseB2=F ITyADJ=14
 ICtDFT=  3500011 ScaDFX=  1.000000  1.000000  1.000000  1.000000
 FoFCou: FMM=F IPFlag=           0 FMFlag=      100000 FMFlg1=           0
         NFxFlg=           0 DoJE=T BraDBF=F KetDBF=T FulRan=T
         wScrn=  0.000000 ICntrl=       500 IOpCl=  0 I1Cent=   200000004 NGrid=           0
         NMat0=    1 NMatS0=      1 NMatT0=    0 NMatD0=    1 NMtDS0=    0 NMtDT0=    0
 Symmetry not used in FoFCou.
 Harris En= -461.008820280867    
 Leave Link  401 at Wed Feb 28 21:10:49 2024, MaxMem=  2147483648 cpu:              14.1 elap:               0.6
 (Enter /software/gaussian-16RevA.03-el7-x86_64/g16/l502.exe)
 Two-electron integral symmetry not used.
 UHF open shell SCF:
 Using DIIS extrapolation, IDIIS=  1040.
 NGot=  2147483648 LenX=  2147395142 LenY=  2147354300
 Requested convergence on RMS density matrix=1.00D-08 within  32 cycles.
 Requested convergence on MAX density matrix=1.00D-06.
 Requested convergence on             energy=1.00D-06.
 No special actions if energy rises.
 Fock matrices will be formed incrementally for  20 cycles.

 Cycle   1  Pass 1  IDiag  1:
 FoFJK:  IHMeth= 1 ICntrl=       0 DoSepK=T KAlg= 0 I1Cent=           0 FoldK=F
 IRaf=         1 NMat=       1 IRICut=       1 DoRegI=T DoRafI=F ISym2E= 0 IDoP0=0 IntGTp=1.
 FoFCou: FMM=F IPFlag=           0 FMFlag=      100000 FMFlg1=           0
         NFxFlg=           0 DoJE=T BraDBF=F KetDBF=F FulRan=T
         wScrn=  0.000000 ICntrl=       500 IOpCl=  0 I1Cent=           0 NGrid=           0
         NMat0=    1 NMatS0=      1 NMatT0=    0 NMatD0=    1 NMtDS0=    0 NMtDT0=    0
 Symmetry not used in FoFCou.
 Inv3:  Mode=1 IEnd=     9177003.
 Iteration    1 A*A^-1 deviation from unit magnitude is 3.00D-15 for    188.
 Iteration    1 A*A^-1 deviation from orthogonality  is 2.44D-15 for   1477    373.
 Iteration    1 A^-1*A deviation from unit magnitude is 3.00D-15 for    188.
 Iteration    1 A^-1*A deviation from orthogonality  is 1.42D-15 for   1696    722.
 E= -483.204150313348    
 DIIS: error= 1.68D-03 at cycle   1 NSaved=   1.
 NSaved= 1 IEnMin= 1 EnMin= -483.204150313348     IErMin= 1 ErrMin= 1.68D-03
 ErrMax= 1.68D-03  0.00D+00 EMaxC= 1.00D-01 BMatC= 1.97D-03 BMatP= 1.97D-03
 IDIUse=3 WtCom= 9.83D-01 WtEn= 1.68D-02
 Coeff-Com:  0.100D+01
 Coeff-En:   0.100D+01
 Coeff:      0.100D+01
 Gap=     0.659 Goal=   None    Shift=    0.000
 Gap=     0.710 Goal=   None    Shift=    0.000
 GapD=    0.659 DampG=2.000 DampE=1.000 DampFc=2.0000 IDamp=-1.
 RMSDP=2.37D-04 MaxDP=5.01D-03              OVMax= 6.55D-03

 Cycle   2  Pass 1  IDiag  1:
 RMSU=  2.36D-04    CP:  9.99D-01
 E= -483.204870495769     Delta-E=       -0.000720182421 Rises=F Damp=F
 DIIS: error= 3.93D-04 at cycle   2 NSaved=   2.
 NSaved= 2 IEnMin= 2 EnMin= -483.204870495769     IErMin= 2 ErrMin= 3.93D-04
 ErrMax= 3.93D-04  0.00D+00 EMaxC= 1.00D-01 BMatC= 2.23D-04 BMatP= 1.97D-03
 IDIUse=3 WtCom= 9.96D-01 WtEn= 3.93D-03
 Coeff-Com:  0.628D-01 0.937D+00
 Coeff-En:   0.000D+00 0.100D+01
 Coeff:      0.625D-01 0.937D+00
 Gap=     0.399 Goal=   None    Shift=    0.000
 Gap=     0.352 Goal=   None    Shift=    0.000
 RMSDP=6.93D-05 MaxDP=2.25D-03 DE=-7.20D-04 OVMax= 2.25D-03

 Cycle   3  Pass 1  IDiag  1:
 RMSU=  6.78D-05    CP:  9.99D-01  1.05D+00
 E= -483.204930540584     Delta-E=       -0.000060044815 Rises=F Damp=F
 DIIS: error= 2.77D-04 at cycle   3 NSaved=   3.
 NSaved= 3 IEnMin= 3 EnMin= -483.204930540584     IErMin= 3 ErrMin= 2.77D-04
 ErrMax= 2.77D-04  0.00D+00 EMaxC= 1.00D-01 BMatC= 7.97D-05 BMatP= 2.23D-04
 IDIUse=3 WtCom= 9.97D-01 WtEn= 2.77D-03
 Coeff-Com: -0.866D-01 0.360D+00 0.727D+00
 Coeff-En:   0.000D+00 0.000D+00 0.100D+01
 Coeff:     -0.864D-01 0.359D+00 0.728D+00
 Gap=     0.399 Goal=   None    Shift=    0.000
 Gap=     0.352 Goal=   None    Shift=    0.000
 RMSDP=2.92D-05 MaxDP=9.96D-04 DE=-6.00D-05 OVMax= 8.79D-04

 Cycle   4  Pass 1  IDiag  1:
 RMSU=  2.24D-05    CP:  9.99D-01  1.13D+00  9.17D-01
 E= -483.204953371750     Delta-E=       -0.000022831166 Rises=F Damp=F
 DIIS: error= 1.05D-04 at cycle   4 NSaved=   4.
 NSaved= 4 IEnMin= 4 EnMin= -483.204953371750     IErMin= 4 ErrMin= 1.05D-04
 ErrMax= 1.05D-04  0.00D+00 EMaxC= 1.00D-01 BMatC= 2.10D-06 BMatP= 7.97D-05
 IDIUse=3 WtCom= 9.99D-01 WtEn= 1.05D-03
 Coeff-Com: -0.146D-01 0.130D-01 0.954D-01 0.906D+00
 Coeff-En:   0.000D+00 0.000D+00 0.000D+00 0.100D+01
 Coeff:     -0.146D-01 0.130D-01 0.953D-01 0.906D+00
 Gap=     0.399 Goal=   None    Shift=    0.000
 Gap=     0.352 Goal=   None    Shift=    0.000
 RMSDP=8.57D-06 MaxDP=3.98D-04 DE=-2.28D-05 OVMax= 4.31D-04

 Cycle   5  Pass 1  IDiag  1:
 RMSU=  5.90D-06    CP:  9.99D-01  1.14D+00  9.81D-01  1.17D+00
 E= -483.204954325969     Delta-E=       -0.000000954219 Rises=F Damp=F
 DIIS: error= 5.05D-05 at cycle   5 NSaved=   5.
 NSaved= 5 IEnMin= 5 EnMin= -483.204954325969     IErMin= 5 ErrMin= 5.05D-05
 ErrMax= 5.05D-05  0.00D+00 EMaxC= 1.00D-01 BMatC= 1.05D-06 BMatP= 2.10D-06
 IDIUse=1 WtCom= 1.00D+00 WtEn= 0.00D+00
 Coeff-Com:  0.650D-02-0.516D-01-0.722D-01 0.427D+00 0.690D+00
 Coeff:      0.650D-02-0.516D-01-0.722D-01 0.427D+00 0.690D+00
 Gap=     0.399 Goal=   None    Shift=    0.000
 Gap=     0.352 Goal=   None    Shift=    0.000
 RMSDP=4.50D-06 MaxDP=2.13D-04 DE=-9.54D-07 OVMax= 2.24D-04

 Cycle   6  Pass 1  IDiag  1:
 RMSU=  2.90D-06    CP:  9.99D-01  1.14D+00  1.01D+00  1.29D+00  9.80D-01
 E= -483.204954677390     Delta-E=       -0.000000351421 Rises=F Damp=F
 DIIS: error= 2.85D-05 at cycle   6 NSaved=   6.
 NSaved= 6 IEnMin= 6 EnMin= -483.204954677390     IErMin= 6 ErrMin= 2.85D-05
 ErrMax= 2.85D-05  0.00D+00 EMaxC= 1.00D-01 BMatC= 1.30D-07 BMatP= 1.05D-06
 IDIUse=1 WtCom= 1.00D+00 WtEn= 0.00D+00
 Coeff-Com:  0.473D-02-0.195D-01-0.399D-01-0.159D-01 0.210D+00 0.860D+00
 Coeff:      0.473D-02-0.195D-01-0.399D-01-0.159D-01 0.210D+00 0.860D+00
 Gap=     0.399 Goal=   None    Shift=    0.000
 Gap=     0.352 Goal=   None    Shift=    0.000
 RMSDP=2.14D-06 MaxDP=8.77D-05 DE=-3.51D-07 OVMax= 1.42D-04

 Cycle   7  Pass 1  IDiag  1:
 RMSU=  1.47D-06    CP:  9.99D-01  1.14D+00  1.02D+00  1.34D+00  1.14D+00
                    CP:  1.12D+00
 E= -483.204954747698     Delta-E=       -0.000000070308 Rises=F Damp=F
 DIIS: error= 1.24D-05 at cycle   7 NSaved=   7.
 NSaved= 7 IEnMin= 7 EnMin= -483.204954747698     IErMin= 7 ErrMin= 1.24D-05
 ErrMax= 1.24D-05  0.00D+00 EMaxC= 1.00D-01 BMatC= 4.63D-08 BMatP= 1.30D-07
 IDIUse=1 WtCom= 1.00D+00 WtEn= 0.00D+00
 Coeff-Com:  0.389D-03 0.556D-02 0.187D-02-0.126D+00-0.103D+00 0.415D+00
 Coeff-Com:  0.806D+00
 Coeff:      0.389D-03 0.556D-02 0.187D-02-0.126D+00-0.103D+00 0.415D+00
 Coeff:      0.806D+00
 Gap=     0.399 Goal=   None    Shift=    0.000
 Gap=     0.352 Goal=   None    Shift=    0.000
 RMSDP=1.21D-06 MaxDP=5.11D-05 DE=-7.03D-08 OVMax= 7.35D-05

 Cycle   8  Pass 1  IDiag  1:
 RMSU=  5.85D-07    CP:  9.99D-01  1.14D+00  1.02D+00  1.35D+00  1.24D+00
                    CP:  1.39D+00  1.03D+00
 E= -483.204954767909     Delta-E=       -0.000000020211 Rises=F Damp=F
 DIIS: error= 3.15D-06 at cycle   8 NSaved=   8.
 NSaved= 8 IEnMin= 8 EnMin= -483.204954767909     IErMin= 8 ErrMin= 3.15D-06
 ErrMax= 3.15D-06  0.00D+00 EMaxC= 1.00D-01 BMatC= 1.79D-09 BMatP= 4.63D-08
 IDIUse=1 WtCom= 1.00D+00 WtEn= 0.00D+00
 Coeff-Com: -0.661D-03 0.357D-02 0.626D-02-0.104D-01-0.489D-01-0.734D-01
 Coeff-Com:  0.818D-01 0.104D+01
 Coeff:     -0.661D-03 0.357D-02 0.626D-02-0.104D-01-0.489D-01-0.734D-01
 Coeff:      0.818D-01 0.104D+01
 Gap=     0.399 Goal=   None    Shift=    0.000
 Gap=     0.352 Goal=   None    Shift=    0.000
 RMSDP=3.84D-07 MaxDP=1.79D-05 DE=-2.02D-08 OVMax= 2.78D-05

 Cycle   9  Pass 1  IDiag  1:
 RMSU=  1.38D-07    CP:  9.99D-01  1.14D+00  1.02D+00  1.35D+00  1.26D+00
                    CP:  1.47D+00  1.17D+00  1.21D+00
 E= -483.204954769372     Delta-E=       -0.000000001462 Rises=F Damp=F
 DIIS: error= 4.43D-07 at cycle   9 NSaved=   9.
 NSaved= 9 IEnMin= 9 EnMin= -483.204954769372     IErMin= 9 ErrMin= 4.43D-07
 ErrMax= 4.43D-07  0.00D+00 EMaxC= 1.00D-01 BMatC= 1.45D-10 BMatP= 1.79D-09
 IDIUse=1 WtCom= 1.00D+00 WtEn= 0.00D+00
 Coeff-Com: -0.102D-03 0.264D-03 0.683D-03 0.389D-02-0.465D-02-0.192D-01
 Coeff-Com: -0.282D-01 0.134D+00 0.913D+00
 Coeff:     -0.102D-03 0.264D-03 0.683D-03 0.389D-02-0.465D-02-0.192D-01
 Coeff:     -0.282D-01 0.134D+00 0.913D+00
 Gap=     0.399 Goal=   None    Shift=    0.000
 Gap=     0.352 Goal=   None    Shift=    0.000
 RMSDP=8.49D-08 MaxDP=2.38D-06 DE=-1.46D-09 OVMax= 5.41D-06

 Cycle  10  Pass 1  IDiag  1:
 RMSU=  5.30D-08    CP:  9.99D-01  1.14D+00  1.02D+00  1.35D+00  1.26D+00
                    CP:  1.48D+00  1.18D+00  1.28D+00  1.18D+00
 E= -483.204954769447     Delta-E=       -0.000000000076 Rises=F Damp=F
 DIIS: error= 2.95D-07 at cycle  10 NSaved=  10.
 NSaved=10 IEnMin=10 EnMin= -483.204954769447     IErMin=10 ErrMin= 2.95D-07
 ErrMax= 2.95D-07  0.00D+00 EMaxC= 1.00D-01 BMatC= 4.39D-11 BMatP= 1.45D-10
 IDIUse=1 WtCom= 1.00D+00 WtEn= 0.00D+00
 Coeff-Com:  0.920D-04-0.576D-03-0.965D-03 0.336D-02 0.651D-02 0.106D-01
 Coeff-Com: -0.283D-01-0.151D+00 0.296D+00 0.864D+00
 Coeff:      0.920D-04-0.576D-03-0.965D-03 0.336D-02 0.651D-02 0.106D-01
 Coeff:     -0.283D-01-0.151D+00 0.296D+00 0.864D+00
 Gap=     0.399 Goal=   None    Shift=    0.000
 Gap=     0.352 Goal=   None    Shift=    0.000
 RMSDP=4.53D-08 MaxDP=1.68D-06 DE=-7.58D-11 OVMax= 3.26D-06

 Cycle  11  Pass 1  IDiag  1:
 RMSU=  2.05D-08    CP:  9.99D-01  1.14D+00  1.02D+00  1.35D+00  1.26D+00
                    CP:  1.48D+00  1.18D+00  1.31D+00  1.40D+00  1.13D+00
 E= -483.204954769471     Delta-E=       -0.000000000024 Rises=F Damp=F
 DIIS: error= 1.27D-07 at cycle  11 NSaved=  11.
 NSaved=11 IEnMin=11 EnMin= -483.204954769471     IErMin=11 ErrMin= 1.27D-07
 ErrMax= 1.27D-07  0.00D+00 EMaxC= 1.00D-01 BMatC= 7.07D-12 BMatP= 4.39D-11
 IDIUse=1 WtCom= 1.00D+00 WtEn= 0.00D+00
 Coeff-Com: -0.430D-05 0.946D-04 0.111D-03-0.139D-02-0.180D-02 0.411D-02
 Coeff-Com:  0.733D-02 0.175D-01-0.227D+00-0.262D+00 0.146D+01
 Coeff:     -0.430D-05 0.946D-04 0.111D-03-0.139D-02-0.180D-02 0.411D-02
 Coeff:      0.733D-02 0.175D-01-0.227D+00-0.262D+00 0.146D+01
 Gap=     0.399 Goal=   None    Shift=    0.000
 Gap=     0.352 Goal=   None    Shift=    0.000
 RMSDP=2.98D-08 MaxDP=1.42D-06 DE=-2.39D-11 OVMax= 2.63D-06

 Cycle  12  Pass 1  IDiag  1:
 RMSU=  7.60D-09    CP:  9.99D-01  1.14D+00  1.02D+00  1.35D+00  1.26D+00
                    CP:  1.48D+00  1.17D+00  1.31D+00  1.50D+00  1.42D+00
                    CP:  1.68D+00
 E= -483.204954769478     Delta-E=       -0.000000000007 Rises=F Damp=F
 DIIS: error= 4.63D-08 at cycle  12 NSaved=  12.
 NSaved=12 IEnMin=12 EnMin= -483.204954769478     IErMin=12 ErrMin= 4.63D-08
 ErrMax= 4.63D-08  0.00D+00 EMaxC= 1.00D-01 BMatC= 6.71D-13 BMatP= 7.07D-12
 IDIUse=1 WtCom= 1.00D+00 WtEn= 0.00D+00
 Coeff-Com: -0.995D-05 0.628D-04 0.104D-03-0.342D-03-0.965D-03-0.520D-03
 Coeff-Com:  0.195D-02 0.180D-01-0.318D-01-0.107D+00 0.674D-02 0.111D+01
 Coeff:     -0.995D-05 0.628D-04 0.104D-03-0.342D-03-0.965D-03-0.520D-03
 Coeff:      0.195D-02 0.180D-01-0.318D-01-0.107D+00 0.674D-02 0.111D+01
 Gap=     0.399 Goal=   None    Shift=    0.000
 Gap=     0.352 Goal=   None    Shift=    0.000
 RMSDP=7.92D-09 MaxDP=4.15D-07 DE=-6.59D-12 OVMax= 7.82D-07

 Error on total polarization charges =  0.00827
 SCF Done:  E(UwB97XD) =  -483.204954769     A.U. after   12 cycles
            NFock= 12  Conv=0.79D-08     -V/T= 2.0105
 <Sx>= 0.0000 <Sy>= 0.0000 <Sz>= 0.5000 <S**2>= 0.7539 S= 0.5020
 <L.S>=  0.00000000000    
 KE= 4.781750834855D+02 PE=-2.553948342995D+03 EE= 8.760536237452D+02
 Annihilation of the first spin contaminant:
 S**2 before annihilation     0.7539,   after     0.7500
 Leave Link  502 at Wed Feb 28 21:11:09 2024, MaxMem=  2147483648 cpu:             541.9 elap:              19.7
 (Enter /software/gaussian-16RevA.03-el7-x86_64/g16/l508.exe)
 QCSCF skips out because SCF is already converged.
 Leave Link  508 at Wed Feb 28 21:11:09 2024, MaxMem=  2147483648 cpu:               0.8 elap:               0.1
 (Enter /software/gaussian-16RevA.03-el7-x86_64/g16/l801.exe)
 DoSCS=F DFT=T ScalE2(SS,OS)=  1.000000  1.000000
 Range of M.O.s used for correlation:     1   190
 NBasis=   190 NAE=    44 NBE=    43 NFC=     0 NFV=     0
 NROrb=    190 NOA=    44 NOB=    43 NVA=   146 NVB=   147
 Leave Link  801 at Wed Feb 28 21:11:09 2024, MaxMem=  2147483648 cpu:               0.9 elap:               0.1
 (Enter /software/gaussian-16RevA.03-el7-x86_64/g16/l1101.exe)
 Leave Link 1101 at Wed Feb 28 21:11:09 2024, MaxMem=  2147483648 cpu:               1.5 elap:               0.1
 (Enter /software/gaussian-16RevA.03-el7-x86_64/g16/l1102.exe)
 Symmetrizing basis deriv contribution to polar:
 IMax=3 JMax=2 DiffMx= 0.00D+00
 Leave Link 1102 at Wed Feb 28 21:11:09 2024, MaxMem=  2147483648 cpu:               1.4 elap:               0.1
 (Enter /software/gaussian-16RevA.03-el7-x86_64/g16/l1110.exe)
 Leave Link 1110 at Wed Feb 28 21:11:09 2024, MaxMem=  2147483648 cpu:               1.1 elap:               0.1
 (Enter /software/gaussian-16RevA.03-el7-x86_64/g16/l1002.exe)
 Minotr:  UHF open shell wavefunction.
 Leave Link 1002 at Wed Feb 28 21:11:09 2024, MaxMem=  2147483648 cpu:               0.8 elap:               0.0
 (Enter /software/gaussian-16RevA.03-el7-x86_64/g16/l701.exe)
 ... and contract with generalized density number  0.
 Compute integral first derivatives.
 R6Disp: Adding Grimme-D2 dispersion energy 1st derivatives to the gradient.
   1 Symmetry operations used in ECPInt.
 ECPInt:  NShTT=    5253 NPrTT=   21107 LenC2=    5228 LenP2D=   16397.
 LDataN:  DoStor=T MaxTD1= 5 Len=  102
 D1PCM: PCM CHGder 1st derivatives, ID1Alg=3 FixD1E=F DoIter=F DoCFld=F I1PDM=0.
 GePol: Maximum number of non-zero 1st derivatives   =     164
 Leave Link  701 at Wed Feb 28 21:11:10 2024, MaxMem=  2147483648 cpu:              22.5 elap:               0.8
 (Enter /software/gaussian-16RevA.03-el7-x86_64/g16/l702.exe)
 L702 exits ... SP integral derivatives will be done elsewhere.
 Leave Link  702 at Wed Feb 28 21:11:10 2024, MaxMem=  2147483648 cpu:               0.5 elap:               0.0
 (Enter /software/gaussian-16RevA.03-el7-x86_64/g16/l703.exe)
 Integral derivatives from FoFJK, PRISM(SPDF).
 Compute integral first derivatives, UseDBF=F ICtDFT=           0.
 Calling FoFJK, ICntrl=      2127 FMM=F ISym2X=0 I1Cent= 0 IOpClX= 1 NMat=1 NMatS=1 NMatT=0.
 FoFJK:  IHMeth= 1 ICntrl=    2127 DoSepK=T KAlg= 0 I1Cent=           0 FoldK=F
 IRaf=         1 NMat=       1 IRICut=       1 DoRegI=T DoRafI=F ISym2E= 0 IDoP0=0 IntGTp=1.
 FoFCou: FMM=F IPFlag=           0 FMFlag=      100000 FMFlg1=         800
         NFxFlg=           0 DoJE=F BraDBF=F KetDBF=F FulRan=T
         wScrn=  0.000000 ICntrl=      2527 IOpCl=  0 I1Cent=           0 NGrid=           0
         NMat0=    1 NMatS0=      1 NMatT0=    0 NMatD0=    1 NMtDS0=    0 NMtDT0=    0
 Symmetry not used in FoFCou.
 Leave Link  703 at Wed Feb 28 21:11:13 2024, MaxMem=  2147483648 cpu:              85.3 elap:               3.1
 (Enter /software/gaussian-16RevA.03-el7-x86_64/g16/l716.exe)
 Dipole        = 3.06474816D-05 1.50092349D+00 1.11465946D-01
 Polarizability= 0.00000000D+00 0.00000000D+00 0.00000000D+00
                 0.00000000D+00 0.00000000D+00 0.00000000D+00
 -------------------------------------------------------------------
 Center     Atomic                   Forces (Hartrees/Bohr)
 Number     Number              X              Y              Z
 -------------------------------------------------------------------
      1        6           0.000000145   -0.000190264   -0.000093835
      2        6           0.000071768   -0.000056830    0.000112215
      3        6           0.000033015    0.000022546   -0.000129971
      4        7           0.000000366    0.000067154    0.000431197
      5        6          -0.000032517    0.000023432   -0.000129001
      6        6          -0.000072524   -0.000056734    0.000112153
      7        6          -0.000031077    0.000017642   -0.000178320
      8        6          -0.000129942    0.000080330    0.000108819
      9        8          -0.000000231   -0.000100008   -0.000199430
     10        6           0.000030547    0.000018444   -0.000178006
     11        6           0.000130255    0.000080159    0.000108693
     12        1           0.000000005    0.000148212   -0.000083232
     13        1          -0.000000076    0.000045897    0.000136369
     14        1          -0.000122886    0.000078115    0.000060108
     15        1          -0.000016810    0.000013384   -0.000144971
     16        1           0.000016935    0.000013400   -0.000144837
     17        1           0.000122870    0.000078187    0.000060181
     18        1          -0.000011963   -0.000190616    0.000061871
     19        1           0.000164127    0.000072650    0.000023844
     20        1          -0.000114179    0.000088461    0.000111349
     21        1          -0.000073871   -0.000026213   -0.000193649
     22        1           0.000146013    0.000095092   -0.000026749
     23        1           0.000072788   -0.000180910    0.000099090
     24        1          -0.000163977    0.000073216    0.000024034
     25        1           0.000011461   -0.000190746    0.000061524
     26        1           0.000114744    0.000087944    0.000111500
     27        1           0.000073505   -0.000025848   -0.000193551
     28        1          -0.000072501   -0.000180912    0.000099021
     29        1          -0.000145990    0.000094817   -0.000026417
 -------------------------------------------------------------------
 Cartesian Forces:  Max     0.000431197 RMS     0.000112458
 Leave Link  716 at Wed Feb 28 21:11:13 2024, MaxMem=  2147483648 cpu:               1.1 elap:               0.1
 (Enter /software/gaussian-16RevA.03-el7-x86_64/g16/l103.exe)

 GradGradGradGradGradGradGradGradGradGradGradGradGradGradGradGradGradGrad
 Berny optimization.
 Using GEDIIS/GDIIS optimizer.
 FormGI is forming the generalized inverse of G from B-inverse, IUseBI=4.
 Internal  Forces:  Max     0.000210183 RMS     0.000062494
 Step   2 in ReCalcFC=50 IGetFC= 0 update Hessian.
 Search for a local minimum.
 Step number   2 out of a maximum of  174
 All quantities printed in internal units (Hartrees-Bohrs-Radians)
 RMS Force = .62494D-04 SwitMx=.10000D-02 MixMth= 2
 Mixed Optimization -- En-DIIS/RFO-DIIS
 Update second derivatives using D2CorX and points    1    2
 DE= -1.05D-03 DEPred=-1.03D-03 R= 1.02D+00
 TightC=F SS=  1.41D+00  RLast= 1.24D-01 DXNew= 5.0454D-01 3.7058D-01
 Trust test= 1.02D+00 RLast= 1.24D-01 DXMaxT set to 3.71D-01
 ITU=  1  0
 Use linear search instead of GDIIS.
     Eigenvalues ---    0.00221   0.00261   0.00352   0.00376   0.00492
     Eigenvalues ---    0.00645   0.00764   0.01412   0.02474   0.02636
     Eigenvalues ---    0.03900   0.03963   0.04025   0.04389   0.04481
     Eigenvalues ---    0.04539   0.04547   0.04624   0.04675   0.04689
     Eigenvalues ---    0.04781   0.04804   0.04904   0.05157   0.05787
     Eigenvalues ---    0.06126   0.06296   0.06873   0.07216   0.07306
     Eigenvalues ---    0.07707   0.08459   0.09029   0.10673   0.11404
     Eigenvalues ---    0.12317   0.12479   0.12767   0.12789   0.13443
     Eigenvalues ---    0.14423   0.14764   0.14822   0.15346   0.15533
     Eigenvalues ---    0.15779   0.15921   0.16194   0.17781   0.19016
     Eigenvalues ---    0.21928   0.22134   0.26150   0.26192   0.28622
     Eigenvalues ---    0.28847   0.29066   0.29745   0.30264   0.31832
     Eigenvalues ---    0.34547   0.34667   0.34821   0.35194   0.35320
     Eigenvalues ---    0.35372   0.35469   0.35785   0.35812   0.35877
     Eigenvalues ---    0.35898   0.36097   0.36099   0.36195   0.36349
     Eigenvalues ---    0.36361   0.36440   0.36815   0.36966   0.38028
     Eigenvalues ---    0.63527
 RFO step:  Lambda=-7.39893461D-06 EMin= 2.20916111D-03
 Quartic linear search produced a step of  0.04161.
 Iteration  1 RMS(Cart)=  0.00359428 RMS(Int)=  0.00001499
 Iteration  2 RMS(Cart)=  0.00001513 RMS(Int)=  0.00000321
 Iteration  3 RMS(Cart)=  0.00000000 RMS(Int)=  0.00000321
 ITry= 1 IFail=0 DXMaxC= 1.52D-02 DCOld= 1.00D+10 DXMaxT= 3.71D-01 DXLimC= 3.00D+00 Rises=F
 Variable       Old X    -DE/DX   Delta X   Delta X   Delta X     New X
                                 (Linear)    (Quad)   (Total)
    R1        2.87789   0.00001   0.00002  -0.00005  -0.00003   2.87786
    R2        2.87789   0.00001   0.00002  -0.00005  -0.00003   2.87786
    R3        2.08372   0.00017   0.00066  -0.00015   0.00051   2.08424
    R4        2.08597   0.00014   0.00062  -0.00015   0.00047   2.08644
    R5        2.90409   0.00003   0.00021  -0.00009   0.00012   2.90421
    R6        2.08508   0.00016   0.00064  -0.00020   0.00045   2.08552
    R7        2.08858   0.00014   0.00062  -0.00015   0.00046   2.08905
    R8        2.81770   0.00003  -0.00015  -0.00047  -0.00061   2.81709
    R9        2.90649   0.00002   0.00022  -0.00015   0.00007   2.90656
   R10        2.89504   0.00003   0.00026  -0.00012   0.00014   2.89518
   R11        2.81770   0.00003  -0.00015  -0.00046  -0.00061   2.81709
   R12        2.39408   0.00008  -0.00028   0.00033   0.00004   2.39412
   R13        2.90409   0.00003   0.00021  -0.00009   0.00012   2.90421
   R14        2.90649   0.00002   0.00022  -0.00015   0.00007   2.90656
   R15        2.89504   0.00003   0.00026  -0.00011   0.00015   2.89518
   R16        2.08858   0.00014   0.00062  -0.00015   0.00046   2.08905
   R17        2.08508   0.00016   0.00064  -0.00020   0.00045   2.08552
   R18        2.08241   0.00020   0.00074  -0.00012   0.00062   2.08303
   R19        2.08435   0.00018   0.00070  -0.00015   0.00055   2.08490
   R20        2.08133   0.00018   0.00070  -0.00013   0.00057   2.08190
   R21        2.08437   0.00021   0.00076  -0.00019   0.00057   2.08494
   R22        2.08423   0.00017   0.00069  -0.00013   0.00055   2.08478
   R23        2.07815   0.00021   0.00074  -0.00015   0.00059   2.07875
   R24        2.08435   0.00018   0.00070  -0.00015   0.00055   2.08490
   R25        2.08241   0.00020   0.00074  -0.00012   0.00062   2.08303
   R26        2.08133   0.00018   0.00070  -0.00013   0.00057   2.08190
   R27        2.08437   0.00021   0.00075  -0.00019   0.00057   2.08494
   R28        2.07815   0.00021   0.00074  -0.00015   0.00059   2.07875
   R29        2.08423   0.00017   0.00069  -0.00013   0.00055   2.08478
    A1        1.90203  -0.00000  -0.00001   0.00072   0.00071   1.90274
    A2        1.91641  -0.00000  -0.00007  -0.00027  -0.00035   1.91606
    A3        1.93658   0.00001   0.00008  -0.00005   0.00003   1.93661
    A4        1.91641  -0.00000  -0.00007  -0.00028  -0.00035   1.91606
    A5        1.93658   0.00001   0.00008  -0.00004   0.00003   1.93661
    A6        1.85552  -0.00000  -0.00000  -0.00011  -0.00012   1.85540
    A7        1.98203   0.00001   0.00004   0.00019   0.00023   1.98226
    A8        1.94027  -0.00000  -0.00002  -0.00033  -0.00036   1.93991
    A9        1.89309  -0.00001  -0.00011   0.00024   0.00013   1.89322
   A10        1.88506   0.00000   0.00010  -0.00010   0.00000   1.88507
   A11        1.89646  -0.00000  -0.00000   0.00002   0.00002   1.89647
   A12        1.86286   0.00000  -0.00001  -0.00002  -0.00003   1.86283
   A13        1.92454   0.00001   0.00011   0.00009   0.00021   1.92475
   A14        1.94450   0.00000  -0.00002  -0.00014  -0.00016   1.94434
   A15        1.90594  -0.00001  -0.00015  -0.00008  -0.00023   1.90571
   A16        1.90426  -0.00000  -0.00007  -0.00007  -0.00013   1.90413
   A17        1.87543   0.00000   0.00006   0.00029   0.00036   1.87579
   A18        1.90781   0.00000   0.00006  -0.00009  -0.00003   1.90778
   A19        2.16982  -0.00001   0.00016   0.00088   0.00103   2.17085
   A20        2.02630   0.00002   0.00022   0.00067   0.00086   2.02717
   A21        2.02631   0.00002   0.00022   0.00067   0.00086   2.02717
   A22        1.92454   0.00001   0.00011   0.00010   0.00021   1.92475
   A23        1.90426  -0.00000  -0.00007  -0.00006  -0.00013   1.90413
   A24        1.87544   0.00000   0.00006   0.00029   0.00035   1.87578
   A25        1.94450   0.00000  -0.00002  -0.00014  -0.00016   1.94434
   A26        1.90594  -0.00001  -0.00014  -0.00008  -0.00023   1.90571
   A27        1.90781   0.00000   0.00006  -0.00009  -0.00003   1.90778
   A28        1.98202   0.00001   0.00004   0.00020   0.00024   1.98226
   A29        1.89308  -0.00001  -0.00011   0.00024   0.00013   1.89322
   A30        1.94027  -0.00000  -0.00002  -0.00033  -0.00036   1.93991
   A31        1.89646  -0.00000  -0.00000   0.00002   0.00002   1.89647
   A32        1.88507   0.00000   0.00010  -0.00010  -0.00000   1.88507
   A33        1.86286   0.00000  -0.00001  -0.00002  -0.00003   1.86283
   A34        1.91394  -0.00000   0.00001  -0.00002  -0.00001   1.91393
   A35        1.91721   0.00000   0.00010   0.00006   0.00016   1.91737
   A36        1.96148   0.00000  -0.00004  -0.00010  -0.00014   1.96134
   A37        1.89475   0.00000   0.00003   0.00004   0.00007   1.89482
   A38        1.89208  -0.00001  -0.00007  -0.00007  -0.00014   1.89194
   A39        1.88295  -0.00000  -0.00003   0.00008   0.00006   1.88301
   A40        1.92952  -0.00000  -0.00006   0.00001  -0.00005   1.92948
   A41        1.90834   0.00001   0.00005  -0.00038  -0.00033   1.90801
   A42        1.94082   0.00001   0.00018   0.00055   0.00073   1.94155
   A43        1.89231  -0.00001  -0.00012  -0.00004  -0.00015   1.89216
   A44        1.89308   0.00001   0.00011  -0.00002   0.00009   1.89317
   A45        1.89885  -0.00001  -0.00017  -0.00014  -0.00031   1.89854
   A46        1.91720   0.00001   0.00010   0.00006   0.00017   1.91737
   A47        1.91394  -0.00000   0.00001  -0.00002  -0.00001   1.91393
   A48        1.96148   0.00000  -0.00004  -0.00010  -0.00014   1.96134
   A49        1.89475   0.00000   0.00003   0.00004   0.00007   1.89482
   A50        1.88295  -0.00000  -0.00003   0.00009   0.00006   1.88301
   A51        1.89209  -0.00001  -0.00007  -0.00007  -0.00015   1.89194
   A52        1.92952  -0.00000  -0.00006   0.00001  -0.00004   1.92948
   A53        1.94082   0.00001   0.00018   0.00055   0.00073   1.94155
   A54        1.90834   0.00001   0.00005  -0.00038  -0.00033   1.90801
   A55        1.89308   0.00001   0.00011  -0.00002   0.00009   1.89317
   A56        1.89232  -0.00001  -0.00012  -0.00004  -0.00016   1.89216
   A57        1.89885  -0.00001  -0.00017  -0.00014  -0.00031   1.89854
    D1        1.03002  -0.00001  -0.00011  -0.00114  -0.00125   1.02877
    D2       -3.12316   0.00000   0.00003  -0.00138  -0.00135  -3.12450
    D3       -1.08016  -0.00000  -0.00006  -0.00145  -0.00151  -1.08167
    D4        3.12972  -0.00001  -0.00025  -0.00120  -0.00145   3.12827
    D5       -1.02346  -0.00000  -0.00010  -0.00144  -0.00154  -1.02500
    D6        1.01954  -0.00001  -0.00020  -0.00151  -0.00171   1.01783
    D7       -1.10737  -0.00002  -0.00025  -0.00153  -0.00179  -1.10916
    D8        1.02264  -0.00001  -0.00011  -0.00178  -0.00188   1.02076
    D9        3.06564  -0.00001  -0.00020  -0.00185  -0.00205   3.06359
   D10       -1.03003   0.00001   0.00011   0.00115   0.00126  -1.02877
   D11        1.08015   0.00000   0.00006   0.00147   0.00153   1.08168
   D12        3.12314  -0.00000  -0.00003   0.00140   0.00136   3.12451
   D13       -3.12973   0.00001   0.00025   0.00121   0.00146  -3.12827
   D14       -1.01955   0.00001   0.00020   0.00153   0.00173  -1.01782
   D15        1.02344   0.00000   0.00010   0.00146   0.00156   1.02500
   D16        1.10736   0.00002   0.00025   0.00155   0.00180   1.10916
   D17       -3.06565   0.00001   0.00020   0.00187   0.00207  -3.06358
   D18       -1.02265   0.00001   0.00010   0.00179   0.00190  -1.02075
   D19       -0.79549   0.00002   0.00032   0.00143   0.00175  -0.79375
   D20        1.32168   0.00002   0.00030   0.00131   0.00161   1.32330
   D21       -2.85240   0.00001   0.00026   0.00106   0.00133  -2.85108
   D22       -2.95586   0.00001   0.00025   0.00180   0.00205  -2.95382
   D23       -0.83869   0.00001   0.00023   0.00168   0.00191  -0.83677
   D24        1.27041   0.00001   0.00019   0.00143   0.00163   1.27204
   D25        1.31279   0.00001   0.00021   0.00186   0.00208   1.31487
   D26       -2.85322   0.00001   0.00019   0.00175   0.00194  -2.85127
   D27       -0.74412   0.00001   0.00016   0.00150   0.00166  -0.74246
   D28        0.61578  -0.00004  -0.00062  -0.00129  -0.00191   0.61387
   D29       -2.90875   0.00008   0.00114   0.00556   0.00670  -2.90205
   D30       -1.52518  -0.00004  -0.00062  -0.00114  -0.00176  -1.52694
   D31        1.23348   0.00007   0.00113   0.00572   0.00685   1.24033
   D32        2.69139  -0.00004  -0.00069  -0.00116  -0.00185   2.68953
   D33       -0.83314   0.00007   0.00107   0.00569   0.00676  -0.82638
   D34        1.18824  -0.00002  -0.00032  -0.00199  -0.00231   1.18593
   D35       -3.01397  -0.00001  -0.00021  -0.00191  -0.00212  -3.01609
   D36       -0.90820  -0.00002  -0.00033  -0.00208  -0.00241  -0.91061
   D37       -2.96599  -0.00001  -0.00023  -0.00201  -0.00224  -2.96823
   D38       -0.88502  -0.00000  -0.00013  -0.00193  -0.00205  -0.88707
   D39        1.22075  -0.00001  -0.00024  -0.00210  -0.00234   1.21841
   D40       -0.91976  -0.00001  -0.00016  -0.00174  -0.00191  -0.92167
   D41        1.16121  -0.00000  -0.00005  -0.00167  -0.00172   1.15949
   D42       -3.01621  -0.00001  -0.00017  -0.00184  -0.00200  -3.01821
   D43        1.10668   0.00002   0.00042   0.00813   0.00855   1.11523
   D44       -3.07255   0.00003   0.00064   0.00848   0.00912  -3.06343
   D45       -0.97537   0.00003   0.00057   0.00840   0.00897  -0.96640
   D46       -0.98084   0.00002   0.00033   0.00789   0.00822  -0.97262
   D47        1.12312   0.00003   0.00055   0.00825   0.00879   1.13191
   D48       -3.06290   0.00002   0.00048   0.00817   0.00865  -3.05425
   D49       -3.04517   0.00002   0.00034   0.00785   0.00820  -3.03698
   D50       -0.94121   0.00003   0.00056   0.00821   0.00877  -0.93245
   D51        1.15596   0.00002   0.00049   0.00813   0.00862   1.16458
   D52       -0.61579   0.00004   0.00062   0.00130   0.00192  -0.61387
   D53        1.52516   0.00004   0.00063   0.00115   0.00178   1.52694
   D54       -2.69140   0.00005   0.00069   0.00118   0.00187  -2.68953
   D55        2.90874  -0.00008  -0.00114  -0.00555  -0.00669   2.90205
   D56       -1.23349  -0.00007  -0.00113  -0.00570  -0.00683  -1.24033
   D57        0.83313  -0.00007  -0.00107  -0.00568  -0.00674   0.82638
   D58        0.79552  -0.00002  -0.00032  -0.00145  -0.00177   0.79375
   D59       -1.31276  -0.00001  -0.00021  -0.00189  -0.00211  -1.31487
   D60        2.95589  -0.00001  -0.00025  -0.00183  -0.00207   2.95381
   D61       -1.32165  -0.00002  -0.00030  -0.00135  -0.00165  -1.32330
   D62        2.85326  -0.00001  -0.00020  -0.00179  -0.00199   2.85127
   D63        0.83872  -0.00001  -0.00023  -0.00172  -0.00195   0.83677
   D64        2.85243  -0.00001  -0.00027  -0.00109  -0.00136   2.85107
   D65        0.74415  -0.00001  -0.00016  -0.00153  -0.00170   0.74246
   D66       -1.27038  -0.00001  -0.00020  -0.00147  -0.00166  -1.27204
   D67        0.88523   0.00000   0.00012   0.00172   0.00183   0.88706
   D68        2.96620   0.00001   0.00022   0.00179   0.00201   2.96821
   D69       -1.22053   0.00001   0.00023   0.00187   0.00210  -1.21843
   D70        3.01417   0.00001   0.00020   0.00171   0.00191   3.01608
   D71       -1.18804   0.00002   0.00031   0.00178   0.00209  -1.18595
   D72        0.90841   0.00002   0.00031   0.00186   0.00218   0.91059
   D73       -1.16101  -0.00000   0.00005   0.00145   0.00150  -1.15951
   D74        0.91997   0.00001   0.00016   0.00153   0.00168   0.92165
   D75        3.01642   0.00001   0.00016   0.00161   0.00177   3.01819
   D76        0.98096  -0.00002  -0.00034  -0.00801  -0.00834   0.97261
   D77        3.06301  -0.00002  -0.00049  -0.00828  -0.00877   3.05424
   D78       -1.12300  -0.00003  -0.00055  -0.00836  -0.00891  -1.13192
   D79       -1.10656  -0.00002  -0.00043  -0.00825  -0.00867  -1.11524
   D80        0.97549  -0.00003  -0.00057  -0.00852  -0.00910   0.96639
   D81        3.07266  -0.00003  -0.00064  -0.00860  -0.00924   3.06342
   D82        3.04528  -0.00002  -0.00035  -0.00797  -0.00832   3.03697
   D83       -1.15585  -0.00003  -0.00050  -0.00824  -0.00874  -1.16459
   D84        0.94132  -0.00003  -0.00056  -0.00832  -0.00888   0.93244
         Item               Value     Threshold  Converged?
 Maximum Force            0.000210     0.000450     YES
 RMS     Force            0.000062     0.000300     YES
 Maximum Displacement     0.015179     0.001800     NO 
 RMS     Displacement     0.003595     0.001200     NO 
 Predicted change in Energy=-4.889143D-06
 Lowest energy point so far.  Saving SCF results.
 Step   2 in ReCalcFC=50 IGetFC= 0 compute gradient.
 GradGradGradGradGradGradGradGradGradGradGradGradGradGradGradGradGradGrad

 Leave Link  103 at Wed Feb 28 21:11:13 2024, MaxMem=  2147483648 cpu:               1.4 elap:               0.1
 (Enter /software/gaussian-16RevA.03-el7-x86_64/g16/l202.exe)
                          Input orientation:                          
 ---------------------------------------------------------------------
 Center     Atomic      Atomic             Coordinates (Angstroms)
 Number     Number       Type             X           Y           Z
 ---------------------------------------------------------------------
      1          6           0        0.000056    2.119283   -0.001170
      2          6           0       -1.239909    1.385359   -0.494178
      3          6           0       -1.318543   -0.074828   -0.021364
      4          7           0        0.000007   -0.747229   -0.199140
      5          6           0        1.318576   -0.074876   -0.021321
      6          6           0        1.240011    1.385314   -0.494136
      7          6           0        1.733951   -0.164613    1.456891
      8          6           0        2.338787   -0.828302   -0.880821
      9          8           0       -0.000018   -2.010497   -0.103066
     10          6           0       -1.733970   -0.164546    1.456835
     11          6           0       -2.338757   -0.828217   -0.880895
     12          1           0        0.000081    3.152687   -0.386567
     13          1           0        0.000038    2.199101    1.100038
     14          1           0       -2.161580    1.898869   -0.170473
     15          1           0       -1.239081    1.399652   -1.599563
     16          1           0        1.239223    1.399609   -1.599521
     17          1           0        2.161690    1.898790   -0.170396
     18          1           0        1.656697   -1.208939    1.801077
     19          1           0        2.779753    0.167087    1.573096
     20          1           0        1.105358    0.463552    2.108049
     21          1           0        2.005214   -0.868714   -1.931714
     22          1           0        3.307648   -0.302040   -0.842750
     23          1           0        2.480647   -1.857868   -0.520369
     24          1           0       -2.779757    0.167211    1.573007
     25          1           0       -1.656784   -1.208877    1.801022
     26          1           0       -1.105362    0.463583    2.108014
     27          1           0       -2.005157   -0.868637   -1.931779
     28          1           0       -2.480660   -1.857779   -0.520448
     29          1           0       -3.307601   -0.301923   -0.842848
 ---------------------------------------------------------------------
                    Distance matrix (angstroms):
                    1          2          3          4          5
     1  C    0.000000
     2  C    1.522896   0.000000
     3  C    2.559928   1.536841   0.000000
     4  N    2.873340   2.484425   1.490739   0.000000
     5  C    2.559928   2.983576   2.637119   1.490739   0.000000
     6  C    1.522896   2.479920   2.983576   2.484426   1.536841
     7  C    3.216911   3.879811   3.392790   2.467477   1.538084
     8  C    3.864157   4.225737   3.831770   2.437449   1.532065
     9  O    4.131036   3.636225   2.343502   1.266916   2.343501
    10  C    3.216909   2.540228   1.538084   2.467478   3.392789
    11  C    3.864157   2.501386   1.532065   2.437450   3.831771
    12  H    1.102930   2.161621   3.505566   3.904417   3.505566
    13  H    1.104097   2.177423   2.857788   3.220050   2.857789
    14  H    2.179430   1.103611   2.151377   3.416887   4.003674
    15  H    2.146669   1.105477   2.161277   2.847037   3.347639
    16  H    2.146669   2.714421   3.347643   2.847040   2.161277
    17  H    2.179430   3.455332   4.003673   3.416887   2.151377
    18  H    4.131539   4.515407   3.668727   2.637929   2.172915
    19  H    3.743808   4.681398   4.404187   3.421079   2.176178
    20  H    2.900335   3.622374   3.271017   2.830356   2.206714
    21  H    4.083599   4.204543   3.914979   2.652816   2.179737
    22  H    4.184642   4.863033   4.704035   3.398959   2.163968
    23  H    4.715997   4.935762   4.226356   2.736839   2.185983
    24  H    3.743792   2.851012   2.176177   3.421080   4.404182
    25  H    4.131545   3.488809   2.172917   2.637939   3.668741
    26  H    2.900336   2.763907   2.206713   2.830347   3.271006
    27  H    4.083600   2.780791   2.179737   2.652821   3.914984
    28  H    4.715997   3.472478   2.185982   2.736836   4.226354
    29  H    4.184645   2.691439   2.163968   3.398960   4.704038
                    6          7          8          9         10
     6  C    0.000000
     7  C    2.540228   0.000000
     8  C    2.501386   2.504238   0.000000
     9  O    3.636226   2.974458   2.733587   0.000000
    10  C    3.879809   3.467921   4.742632   2.974460   0.000000
    11  C    4.225740   4.742633   4.677544   2.733588   2.504238
    12  H    2.161621   4.172424   4.643502   5.170961   4.172421
    13  H    2.177423   2.953124   4.307983   4.378147   2.953120
    14  H    3.455332   4.699089   5.309931   4.467666   2.662455
    15  H    2.714420   4.541780   4.275689   3.924780   3.468891
    16  H    1.105477   3.468890   2.586341   3.924783   4.541780
    17  H    1.103611   2.662453   2.823667   4.467666   4.699085
    18  H    3.488808   1.102293   2.793334   2.648199   3.564530
    19  H    2.851022   1.103282   2.684578   3.908774   4.527382
    20  H    2.763900   1.101693   3.481893   3.497399   2.979995
    21  H    2.780793   3.471597   1.103304   2.944245   5.095058
    22  H    2.691434   2.789939   1.103219   3.795605   5.543005
    23  H    3.472478   2.708177   1.100026   2.520146   4.953753
    24  H    4.681388   4.527378   5.762970   3.908783   1.103282
    25  H    4.515418   3.564547   4.827184   2.648210   1.102293
    26  H    3.622368   2.979982   4.739648   3.497389   1.101693
    27  H    4.204549   5.095063   4.469451   2.944252   3.471598
    28  H    4.935762   4.953749   4.941333   2.520142   2.708179
    29  H    4.863039   5.543005   5.670998   3.795604   2.789934
                   11         12         13         14         15
    11  C    0.000000
    12  H    4.643503   0.000000
    13  H    4.307982   1.766160   0.000000
    14  H    2.823666   2.508294   2.525259   0.000000
    15  H    2.586343   2.465769   3.076098   1.772716   0.000000
    16  H    4.275695   2.465768   3.076099   3.722486   2.478305
    17  H    5.309933   2.508294   2.525258   4.323270   3.722486
    18  H    4.827170   5.153052   3.853662   5.303274   5.172488
    19  H    5.762972   4.525556   3.475583   5.518684   5.266499
    20  H    4.739660   3.830952   2.291276   4.233755   4.485428
    21  H    4.469446   4.751811   4.756442   5.303175   3.972564
    22  H    5.670997   4.804502   4.579346   5.933668   4.913377
    23  H    4.941337   5.592564   5.023757   5.982122   5.060877
    24  H    2.684584   4.525538   3.475563   2.533871   3.736013
    25  H    2.793325   5.153056   3.853668   3.714794   4.306144
    26  H    3.481894   3.830955   2.291277   2.892602   3.826256
    27  H    1.103304   4.751811   4.756442   3.284168   2.417100
    28  H    1.100026   5.592564   5.023756   3.786384   3.649228
    29  H    1.103219   4.804507   4.579346   2.570785   2.783299
                   16         17         18         19         20
    16  H    0.000000
    17  H    1.772716   0.000000
    18  H    4.306144   3.714796   0.000000
    19  H    3.736019   2.533883   1.790721   0.000000
    20  H    3.826251   2.892587   1.787578   1.782601   0.000000
    21  H    2.417103   3.284174   3.764432   3.735838   4.347915
    22  H    2.783288   2.570784   3.246218   2.516955   3.760775
    23  H    3.649228   3.786383   2.547374   2.927884   3.766828
    24  H    5.266492   5.518670   4.650584   5.559510   3.932964
    25  H    5.172499   5.303285   3.313480   4.650601   3.243565
    26  H    4.485425   4.233746   3.243533   3.932959   2.210720
    27  H    3.972573   5.303181   5.240152   6.020983   5.269748
    28  H    5.060880   5.982120   4.788340   6.012899   5.015686
    29  H    4.913388   5.933673   5.697128   6.566022   5.363577
                   21         22         23         24         25
    21  H    0.000000
    22  H    1.789776   0.000000
    23  H    1.787837   1.791219   0.000000
    24  H    6.020977   6.566017   6.012905   0.000000
    25  H    5.240159   5.697146   4.788359   1.790721   0.000000
    26  H    5.269735   5.363566   5.015675   1.782601   1.787577
    27  H    4.010371   5.452790   4.805527   3.735842   3.764429
    28  H    4.805517   6.002393   4.961307   2.927901   2.547365
    29  H    5.452788   6.615250   6.002398   2.516955   3.246199
                   26         27         28         29
    26  H    0.000000
    27  H    4.347915   0.000000
    28  H    3.766827   1.787837   0.000000
    29  H    3.760777   1.789776   1.791218   0.000000
 Symmetry turned off by external request.
 Stoichiometry    C9H18NO(2)
 Framework group  C1[X(C9H18NO)]
 Deg. of freedom    81
 Full point group                 C1      NOp   1
 Rotational constants (GHZ):           1.4844607           1.0675203           0.8588404
 Leave Link  202 at Wed Feb 28 21:11:13 2024, MaxMem=  2147483648 cpu:               0.5 elap:               0.0
 (Enter /software/gaussian-16RevA.03-el7-x86_64/g16/l301.exe)
 Standard basis: def2SVPP (5D, 7F)
 Ernie: Thresh=  0.10000D-02 Tol=  0.10000D-05 Strict=F.
   190 basis functions,   347 primitive gaussians,   201 cartesian basis functions
    44 alpha electrons       43 beta electrons
       nuclear repulsion energy       716.4661387128 Hartrees.
 IExCor= 4639 DFT=T Ex+Corr=wB97XD ExCW=0 ScaHFX=  1.000000
 ScaDFX=  1.000000  1.000000  1.000000  1.000000 ScalE2=  1.000000  1.000000
 IRadAn=      5 IRanWt=     -1 IRanGd=            0 ICorTp=0 IEmpDi=121
 HFx  wShort=  0.000000 wLong=  0.200000 cFull=  0.222036 cShort=  0.000000 cLong=  0.777964
 DFx  wShort=  0.000000 wLong=  0.200000 cFull=  0.000000 cShort=  0.000000 cLong=  1.000000
 NAtoms=   29 NActive=   29 NUniq=   29 SFac= 1.00D+00 NAtFMM=   60 NAOKFM=F Big=F
 Integral buffers will be    131072 words long.
 Raffenetti 2 integral format.
 Two-electron integral symmetry is turned off.
 R6Disp:  Grimme-D2 Dispersion energy=       -0.0257188554 Hartrees.
 Nuclear repulsion after empirical dispersion term =      716.4404198573 Hartrees.
 Force inversion solution in PCM.
 ------------------------------------------------------------------------------
 Polarizable Continuum Model (PCM)
 =================================
 Model                : PCM.
 Atomic radii         : UFF (Universal Force Field).
 Polarization charges : Total charges.
 Charge compensation  : None.
 Solution method      : Matrix inversion.
 Cavity type          : Scaled VdW (van der Waals Surface) (Alpha=1.100).
 Cavity algorithm     : GePol (No added spheres)
                        Default sphere list used, NSphG=   29.
                        Lebedev-Laikov grids with approx.  5.0 points / Ang**2.
                        Smoothing algorithm: York/Karplus (Gamma=1.0000).
                        Polarization charges: spherical gaussians, with
                                              point-specific exponents (IZeta= 3).
                        Self-potential: point-specific (ISelfS= 7).
                        Self-field    : sphere-specific E.n sum rule (ISelfD= 2).
 1st derivatives      : Analytical E(r).r(x)/FMM algorithm (CHGder, D1EAlg=3).
                        Cavity 1st derivative terms included.
 Solvent              : TetraHydroFuran, Eps=   7.425700 Eps(inf)=   1.974025
 ------------------------------------------------------------------------------
 GePol: Number of generator spheres                  =      29
 GePol: Total number of spheres                      =      29
 GePol: Number of exposed spheres                    =      29 (100.00%)
 GePol: Number of points                             =    1749
 GePol: Average weight of points                     =       0.14
 GePol: Minimum weight of points                     =   0.53D-10
 GePol: Maximum weight of points                     =    0.20577
 GePol: Number of points with low weight             =      98
 GePol: Fraction of low-weight points (<1% of avg)   =       5.60%
 GePol: Cavity surface area                          =    236.606 Ang**2
 GePol: Cavity volume                                =    256.579 Ang**3
 Leave Link  301 at Wed Feb 28 21:11:13 2024, MaxMem=  2147483648 cpu:               1.9 elap:               0.1
 (Enter /software/gaussian-16RevA.03-el7-x86_64/g16/l302.exe)
 NPDir=0 NMtPBC=     1 NCelOv=     1 NCel=       1 NClECP=     1 NCelD=      1
         NCelK=      1 NCelE2=     1 NClLst=     1 CellRange=     0.0.
 One-electron integrals computed using PRISM.
   1 Symmetry operations used in ECPInt.
 ECPInt:  NShTT=    5253 NPrTT=   21107 LenC2=    5228 LenP2D=   16397.
 LDataN:  DoStor=T MaxTD1= 4 Len=   56
 NBasis=   190 RedAO= T EigKep=  1.01D-03  NBF=   190
 NBsUse=   190 1.00D-06 EigRej= -1.00D+00 NBFU=   190
 Precomputing XC quadrature grid using
 IXCGrd= 4 IRadAn=           5 IRanWt=          -1 IRanGd=           0 AccXCQ= 0.00D+00.
 Generated NRdTot=       0 NPtTot=           0 NUsed=           0 NTot=          32
 NSgBfM=   201   201   201   201   201 MxSgAt=    29 MxSgA2=    29.
 Leave Link  302 at Wed Feb 28 21:11:14 2024, MaxMem=  2147483648 cpu:               7.2 elap:               0.3
 (Enter /software/gaussian-16RevA.03-el7-x86_64/g16/l303.exe)
 DipDrv:  MaxL=1.
 Leave Link  303 at Wed Feb 28 21:11:14 2024, MaxMem=  2147483648 cpu:               0.8 elap:               0.1
 (Enter /software/gaussian-16RevA.03-el7-x86_64/g16/l401.exe)
 Initial guess from the checkpoint file:  "TEMPO-cavity-in-THF-wB97XD.chk"
 B after Tr=     0.000000   -0.000088   -0.000371
         Rot=    1.000000   -0.000238    0.000001   -0.000001 Ang=  -0.03 deg.
 Guess basis will be translated and rotated to current coordinates.
 JPrj=2 DoOrth=T DoCkMO=T.
 Initial guess <Sx>= 0.0000 <Sy>= 0.0000 <Sz>= 0.5000 <S**2>= 0.7539 S= 0.5020
 Leave Link  401 at Wed Feb 28 21:11:14 2024, MaxMem=  2147483648 cpu:               4.2 elap:               0.2
 (Enter /software/gaussian-16RevA.03-el7-x86_64/g16/l502.exe)
 Two-electron integral symmetry not used.
 UHF open shell SCF:
 Using DIIS extrapolation, IDIIS=  1040.
 NGot=  2147483648 LenX=  2147395142 LenY=  2147354300
 Requested convergence on RMS density matrix=1.00D-08 within  32 cycles.
 Requested convergence on MAX density matrix=1.00D-06.
 Requested convergence on             energy=1.00D-06.
 No special actions if energy rises.
 Fock matrices will be formed incrementally for  20 cycles.

 Cycle   1  Pass 1  IDiag  1:
 FoFJK:  IHMeth= 1 ICntrl=       0 DoSepK=T KAlg= 0 I1Cent=           0 FoldK=F
 IRaf=         1 NMat=       1 IRICut=       1 DoRegI=T DoRafI=F ISym2E= 0 IDoP0=0 IntGTp=1.
 FoFCou: FMM=F IPFlag=           0 FMFlag=      100000 FMFlg1=           0
         NFxFlg=           0 DoJE=T BraDBF=F KetDBF=F FulRan=T
         wScrn=  0.000000 ICntrl=       500 IOpCl=  0 I1Cent=           0 NGrid=           0
         NMat0=    1 NMatS0=      1 NMatT0=    0 NMatD0=    1 NMtDS0=    0 NMtDT0=    0
 Symmetry not used in FoFCou.
 Inv3:  Mode=1 IEnd=     9177003.
 Iteration    1 A*A^-1 deviation from unit magnitude is 3.89D-15 for    764.
 Iteration    1 A*A^-1 deviation from orthogonality  is 1.82D-15 for   1347     14.
 Iteration    1 A^-1*A deviation from unit magnitude is 3.89D-15 for    764.
 Iteration    1 A^-1*A deviation from orthogonality  is 2.99D-15 for   1657    894.
 E= -483.204897357755    
 DIIS: error= 4.24D-04 at cycle   1 NSaved=   1.
 NSaved= 1 IEnMin= 1 EnMin= -483.204897357755     IErMin= 1 ErrMin= 4.24D-04
 ErrMax= 4.24D-04  0.00D+00 EMaxC= 1.00D-01 BMatC= 1.25D-04 BMatP= 1.25D-04
 IDIUse=3 WtCom= 9.96D-01 WtEn= 4.24D-03
 Coeff-Com:  0.100D+01
 Coeff-En:   0.100D+01
 Coeff:      0.100D+01
 Gap=     0.657 Goal=   None    Shift=    0.000
 Gap=     0.708 Goal=   None    Shift=    0.000
 RMSDP=4.69D-05 MaxDP=1.32D-03              OVMax= 1.62D-03

 Cycle   2  Pass 1  IDiag  1:
 RMSU=  4.69D-05    CP:  1.00D+00
 E= -483.204955428729     Delta-E=       -0.000058070974 Rises=F Damp=F
 DIIS: error= 1.07D-04 at cycle   2 NSaved=   2.
 NSaved= 2 IEnMin= 2 EnMin= -483.204955428729     IErMin= 2 ErrMin= 1.07D-04
 ErrMax= 1.07D-04  0.00D+00 EMaxC= 1.00D-01 BMatC= 6.49D-06 BMatP= 1.25D-04
 IDIUse=3 WtCom= 9.99D-01 WtEn= 1.07D-03
 Coeff-Com: -0.216D+00 0.122D+01
 Coeff-En:   0.000D+00 0.100D+01
 Coeff:     -0.215D+00 0.122D+01
 Gap=     0.399 Goal=   None    Shift=    0.000
 Gap=     0.352 Goal=   None    Shift=    0.000
 RMSDP=1.74D-05 MaxDP=6.58D-04 DE=-5.81D-05 OVMax= 6.23D-04

 Cycle   3  Pass 1  IDiag  1:
 RMSU=  1.04D-05    CP:  1.00D+00  1.30D+00
 E= -483.204959534669     Delta-E=       -0.000004105940 Rises=F Damp=F
 DIIS: error= 6.02D-05 at cycle   3 NSaved=   3.
 NSaved= 3 IEnMin= 3 EnMin= -483.204959534669     IErMin= 3 ErrMin= 6.02D-05
 ErrMax= 6.02D-05  0.00D+00 EMaxC= 1.00D-01 BMatC= 1.56D-06 BMatP= 6.49D-06
 IDIUse=1 WtCom= 1.00D+00 WtEn= 0.00D+00
 Coeff-Com: -0.107D+00 0.501D+00 0.606D+00
 Coeff:     -0.107D+00 0.501D+00 0.606D+00
 Gap=     0.399 Goal=   None    Shift=    0.000
 Gap=     0.352 Goal=   None    Shift=    0.000
 RMSDP=4.16D-06 MaxDP=1.41D-04 DE=-4.11D-06 OVMax= 1.49D-04

 Cycle   4  Pass 1  IDiag  1:
 RMSU=  4.00D-06    CP:  1.00D+00  1.32D+00  1.03D+00
 E= -483.204959866727     Delta-E=       -0.000000332058 Rises=F Damp=F
 DIIS: error= 2.83D-05 at cycle   4 NSaved=   4.
 NSaved= 4 IEnMin= 4 EnMin= -483.204959866727     IErMin= 4 ErrMin= 2.83D-05
 ErrMax= 2.83D-05  0.00D+00 EMaxC= 1.00D-01 BMatC= 2.66D-07 BMatP= 1.56D-06
 IDIUse=1 WtCom= 1.00D+00 WtEn= 0.00D+00
 Coeff-Com:  0.722D-02-0.865D-01 0.246D+00 0.833D+00
 Coeff:      0.722D-02-0.865D-01 0.246D+00 0.833D+00
 Gap=     0.399 Goal=   None    Shift=    0.000
 Gap=     0.352 Goal=   None    Shift=    0.000
 RMSDP=2.39D-06 MaxDP=8.02D-05 DE=-3.32D-07 OVMax= 1.35D-04

 Cycle   5  Pass 1  IDiag  1:
 RMSU=  1.38D-06    CP:  1.00D+00  1.34D+00  1.20D+00  9.55D-01
 E= -483.204959957385     Delta-E=       -0.000000090658 Rises=F Damp=F
 DIIS: error= 1.17D-05 at cycle   5 NSaved=   5.
 NSaved= 5 IEnMin= 5 EnMin= -483.204959957385     IErMin= 5 ErrMin= 1.17D-05
 ErrMax= 1.17D-05  0.00D+00 EMaxC= 1.00D-01 BMatC= 4.15D-08 BMatP= 2.66D-07
 IDIUse=1 WtCom= 1.00D+00 WtEn= 0.00D+00
 Coeff-Com:  0.160D-01-0.962D-01 0.146D-01 0.344D+00 0.722D+00
 Coeff:      0.160D-01-0.962D-01 0.146D-01 0.344D+00 0.722D+00
 Gap=     0.399 Goal=   None    Shift=    0.000
 Gap=     0.352 Goal=   None    Shift=    0.000
 RMSDP=9.20D-07 MaxDP=3.35D-05 DE=-9.07D-08 OVMax= 5.06D-05

 Cycle   6  Pass 1  IDiag  1:
 RMSU=  5.92D-07    CP:  1.00D+00  1.34D+00  1.25D+00  1.07D+00  9.38D-01
 E= -483.204959974477     Delta-E=       -0.000000017092 Rises=F Damp=F
 DIIS: error= 6.18D-06 at cycle   6 NSaved=   6.
 NSaved= 6 IEnMin= 6 EnMin= -483.204959974477     IErMin= 6 ErrMin= 6.18D-06
 ErrMax= 6.18D-06  0.00D+00 EMaxC= 1.00D-01 BMatC= 3.40D-09 BMatP= 4.15D-08
 IDIUse=1 WtCom= 1.00D+00 WtEn= 0.00D+00
 Coeff-Com: -0.369D-02 0.318D-01-0.582D-01-0.210D+00-0.137D+00 0.138D+01
 Coeff:     -0.369D-02 0.318D-01-0.582D-01-0.210D+00-0.137D+00 0.138D+01
 Gap=     0.399 Goal=   None    Shift=    0.000
 Gap=     0.352 Goal=   None    Shift=    0.000
 RMSDP=5.92D-07 MaxDP=3.02D-05 DE=-1.71D-08 OVMax= 4.28D-05

 Cycle   7  Pass 1  IDiag  1:
 RMSU=  1.66D-07    CP:  1.00D+00  1.34D+00  1.27D+00  1.12D+00  1.19D+00
                    CP:  1.59D+00
 E= -483.204959978526     Delta-E=       -0.000000004050 Rises=F Damp=F
 DIIS: error= 1.20D-06 at cycle   7 NSaved=   7.
 NSaved= 7 IEnMin= 7 EnMin= -483.204959978526     IErMin= 7 ErrMin= 1.20D-06
 ErrMax= 1.20D-06  0.00D+00 EMaxC= 1.00D-01 BMatC= 2.07D-10 BMatP= 3.40D-09
 IDIUse=1 WtCom= 1.00D+00 WtEn= 0.00D+00
 Coeff-Com: -0.146D-02 0.941D-02-0.647D-02-0.353D-01-0.695D-01 0.997D-01
 Coeff-Com:  0.100D+01
 Coeff:     -0.146D-02 0.941D-02-0.647D-02-0.353D-01-0.695D-01 0.997D-01
 Coeff:      0.100D+01
 Gap=     0.399 Goal=   None    Shift=    0.000
 Gap=     0.352 Goal=   None    Shift=    0.000
 RMSDP=1.23D-07 MaxDP=5.34D-06 DE=-4.05D-09 OVMax= 7.56D-06

 Cycle   8  Pass 1  IDiag  1:
 RMSU=  5.32D-08    CP:  1.00D+00  1.34D+00  1.26D+00  1.13D+00  1.22D+00
                    CP:  1.74D+00  1.21D+00
 E= -483.204959978687     Delta-E=       -0.000000000161 Rises=F Damp=F
 DIIS: error= 2.97D-07 at cycle   8 NSaved=   8.
 NSaved= 8 IEnMin= 8 EnMin= -483.204959978687     IErMin= 8 ErrMin= 2.97D-07
 ErrMax= 2.97D-07  0.00D+00 EMaxC= 1.00D-01 BMatC= 4.23D-11 BMatP= 2.07D-10
 IDIUse=1 WtCom= 1.00D+00 WtEn= 0.00D+00
 Coeff-Com: -0.132D-03 0.157D-03 0.262D-02 0.905D-02-0.117D-01-0.909D-01
 Coeff-Com:  0.304D+00 0.787D+00
 Coeff:     -0.132D-03 0.157D-03 0.262D-02 0.905D-02-0.117D-01-0.909D-01
 Coeff:      0.304D+00 0.787D+00
 Gap=     0.399 Goal=   None    Shift=    0.000
 Gap=     0.352 Goal=   None    Shift=    0.000
 RMSDP=3.37D-08 MaxDP=1.07D-06 DE=-1.61D-10 OVMax= 2.59D-06

 Cycle   9  Pass 1  IDiag  1:
 RMSU=  2.05D-08    CP:  1.00D+00  1.34D+00  1.26D+00  1.13D+00  1.23D+00
                    CP:  1.76D+00  1.32D+00  1.02D+00
 E= -483.204959978704     Delta-E=       -0.000000000017 Rises=F Damp=F
 DIIS: error= 1.47D-07 at cycle   9 NSaved=   9.
 NSaved= 9 IEnMin= 9 EnMin= -483.204959978704     IErMin= 9 ErrMin= 1.47D-07
 ErrMax= 1.47D-07  0.00D+00 EMaxC= 1.00D-01 BMatC= 7.52D-12 BMatP= 4.23D-11
 IDIUse=1 WtCom= 1.00D+00 WtEn= 0.00D+00
 Coeff-Com:  0.156D-03-0.119D-02 0.116D-02 0.820D-02 0.471D-02-0.383D-01
 Coeff-Com: -0.607D-01 0.225D+00 0.861D+00
 Coeff:      0.156D-03-0.119D-02 0.116D-02 0.820D-02 0.471D-02-0.383D-01
 Coeff:     -0.607D-01 0.225D+00 0.861D+00
 Gap=     0.399 Goal=   None    Shift=    0.000
 Gap=     0.352 Goal=   None    Shift=    0.000
 RMSDP=1.69D-08 MaxDP=7.30D-07 DE=-1.69D-11 OVMax= 1.26D-06

 Cycle  10  Pass 1  IDiag  1:
 RMSU=  8.60D-09    CP:  1.00D+00  1.34D+00  1.26D+00  1.13D+00  1.23D+00
                    CP:  1.77D+00  1.35D+00  1.19D+00  1.10D+00
 E= -483.204959978707     Delta-E=       -0.000000000004 Rises=F Damp=F
 DIIS: error= 6.12D-08 at cycle  10 NSaved=  10.
 NSaved=10 IEnMin=10 EnMin= -483.204959978707     IErMin=10 ErrMin= 6.12D-08
 ErrMax= 6.12D-08  0.00D+00 EMaxC= 1.00D-01 BMatC= 1.36D-12 BMatP= 7.52D-12
 IDIUse=1 WtCom= 1.00D+00 WtEn= 0.00D+00
 Coeff-Com: -0.254D-04 0.344D-03-0.122D-02-0.300D-02-0.875D-03 0.290D-01
 Coeff-Com: -0.368D-01-0.191D+00-0.223D+00 0.143D+01
 Coeff:     -0.254D-04 0.344D-03-0.122D-02-0.300D-02-0.875D-03 0.290D-01
 Coeff:     -0.368D-01-0.191D+00-0.223D+00 0.143D+01
 Gap=     0.399 Goal=   None    Shift=    0.000
 Gap=     0.352 Goal=   None    Shift=    0.000
 RMSDP=1.15D-08 MaxDP=6.02D-07 DE=-3.52D-12 OVMax= 1.07D-06

 Cycle  11  Pass 1  IDiag  1:
 RMSU=  3.27D-09    CP:  1.00D+00  1.34D+00  1.26D+00  1.13D+00  1.22D+00
                    CP:  1.77D+00  1.36D+00  1.29D+00  1.41D+00  1.65D+00
 E= -483.204959978708     Delta-E=       -0.000000000000 Rises=F Damp=F
 DIIS: error= 2.33D-08 at cycle  11 NSaved=  11.
 NSaved=11 IEnMin=11 EnMin= -483.204959978708     IErMin=11 ErrMin= 2.33D-08
 ErrMax= 2.33D-08  0.00D+00 EMaxC= 1.00D-01 BMatC= 1.84D-13 BMatP= 1.36D-12
 IDIUse=1 WtCom= 1.00D+00 WtEn= 0.00D+00
 Coeff-Com: -0.287D-04 0.244D-03-0.489D-03-0.159D-02-0.122D-02 0.112D-01
 Coeff-Com:  0.312D-02-0.684D-01-0.169D+00 0.226D+00 0.100D+01
 Coeff:     -0.287D-04 0.244D-03-0.489D-03-0.159D-02-0.122D-02 0.112D-01
 Coeff:      0.312D-02-0.684D-01-0.169D+00 0.226D+00 0.100D+01
 Gap=     0.399 Goal=   None    Shift=    0.000
 Gap=     0.352 Goal=   None    Shift=    0.000
 RMSDP=3.96D-09 MaxDP=2.01D-07 DE=-4.55D-13 OVMax= 3.71D-07

 Error on total polarization charges =  0.00828
 SCF Done:  E(UwB97XD) =  -483.204959979     A.U. after   11 cycles
            NFock= 11  Conv=0.40D-08     -V/T= 2.0105
 <Sx>= 0.0000 <Sy>= 0.0000 <Sz>= 0.5000 <S**2>= 0.7539 S= 0.5020
 <L.S>=  0.00000000000    
 KE= 4.781682180241D+02 PE=-2.553794857443D+03 EE= 8.759812595831D+02
 Annihilation of the first spin contaminant:
 S**2 before annihilation     0.7539,   after     0.7500
 Leave Link  502 at Wed Feb 28 21:11:32 2024, MaxMem=  2147483648 cpu:             493.2 elap:              17.9
 (Enter /software/gaussian-16RevA.03-el7-x86_64/g16/l508.exe)
 QCSCF skips out because SCF is already converged.
 Leave Link  508 at Wed Feb 28 21:11:32 2024, MaxMem=  2147483648 cpu:               0.3 elap:               0.0
 (Enter /software/gaussian-16RevA.03-el7-x86_64/g16/l801.exe)
 DoSCS=F DFT=T ScalE2(SS,OS)=  1.000000  1.000000
 Range of M.O.s used for correlation:     1   190
 NBasis=   190 NAE=    44 NBE=    43 NFC=     0 NFV=     0
 NROrb=    190 NOA=    44 NOB=    43 NVA=   146 NVB=   147
 Leave Link  801 at Wed Feb 28 21:11:32 2024, MaxMem=  2147483648 cpu:               1.6 elap:               0.1
 (Enter /software/gaussian-16RevA.03-el7-x86_64/g16/l1101.exe)
 Leave Link 1101 at Wed Feb 28 21:11:32 2024, MaxMem=  2147483648 cpu:               1.1 elap:               0.1
 (Enter /software/gaussian-16RevA.03-el7-x86_64/g16/l1102.exe)
 Symmetrizing basis deriv contribution to polar:
 IMax=3 JMax=2 DiffMx= 0.00D+00
 Leave Link 1102 at Wed Feb 28 21:11:32 2024, MaxMem=  2147483648 cpu:               0.9 elap:               0.1
 (Enter /software/gaussian-16RevA.03-el7-x86_64/g16/l1110.exe)
 Leave Link 1110 at Wed Feb 28 21:11:32 2024, MaxMem=  2147483648 cpu:               1.3 elap:               0.1
 (Enter /software/gaussian-16RevA.03-el7-x86_64/g16/l1002.exe)
 Minotr:  UHF open shell wavefunction.
 Leave Link 1002 at Wed Feb 28 21:11:32 2024, MaxMem=  2147483648 cpu:               0.5 elap:               0.0
 (Enter /software/gaussian-16RevA.03-el7-x86_64/g16/l701.exe)
 ... and contract with generalized density number  0.
 Compute integral first derivatives.
 R6Disp: Adding Grimme-D2 dispersion energy 1st derivatives to the gradient.
   1 Symmetry operations used in ECPInt.
 ECPInt:  NShTT=    5253 NPrTT=   21107 LenC2=    5228 LenP2D=   16397.
 LDataN:  DoStor=T MaxTD1= 5 Len=  102
 D1PCM: PCM CHGder 1st derivatives, ID1Alg=3 FixD1E=F DoIter=F DoCFld=F I1PDM=0.
 GePol: Maximum number of non-zero 1st derivatives   =     166
 Leave Link  701 at Wed Feb 28 21:11:33 2024, MaxMem=  2147483648 cpu:              20.7 elap:               0.8
 (Enter /software/gaussian-16RevA.03-el7-x86_64/g16/l702.exe)
 L702 exits ... SP integral derivatives will be done elsewhere.
 Leave Link  702 at Wed Feb 28 21:11:33 2024, MaxMem=  2147483648 cpu:               1.0 elap:               0.1
 (Enter /software/gaussian-16RevA.03-el7-x86_64/g16/l703.exe)
 Integral derivatives from FoFJK, PRISM(SPDF).
 Compute integral first derivatives, UseDBF=F ICtDFT=           0.
 Calling FoFJK, ICntrl=      2127 FMM=F ISym2X=0 I1Cent= 0 IOpClX= 1 NMat=1 NMatS=1 NMatT=0.
 FoFJK:  IHMeth= 1 ICntrl=    2127 DoSepK=T KAlg= 0 I1Cent=           0 FoldK=F
 IRaf=         1 NMat=       1 IRICut=       1 DoRegI=T DoRafI=F ISym2E= 0 IDoP0=0 IntGTp=1.
 FoFCou: FMM=F IPFlag=           0 FMFlag=      100000 FMFlg1=         800
         NFxFlg=           0 DoJE=F BraDBF=F KetDBF=F FulRan=T
         wScrn=  0.000000 ICntrl=      2527 IOpCl=  0 I1Cent=           0 NGrid=           0
         NMat0=    1 NMatS0=      1 NMatT0=    0 NMatD0=    1 NMtDS0=    0 NMtDT0=    0
 Symmetry not used in FoFCou.
 Leave Link  703 at Wed Feb 28 21:11:36 2024, MaxMem=  2147483648 cpu:              85.4 elap:               3.1
 (Enter /software/gaussian-16RevA.03-el7-x86_64/g16/l716.exe)
 Dipole        = 2.57328846D-05 1.50222023D+00 1.14736361D-01
 Polarizability= 0.00000000D+00 0.00000000D+00 0.00000000D+00
                 0.00000000D+00 0.00000000D+00 0.00000000D+00
 -------------------------------------------------------------------
 Center     Atomic                   Forces (Hartrees/Bohr)
 Number     Number              X              Y              Z
 -------------------------------------------------------------------
      1        6          -0.000000001    0.000005655    0.000000843
      2        6           0.000000432    0.000001115   -0.000001765
      3        6          -0.000012535    0.000012499   -0.000001436
      4        7          -0.000000020   -0.000012397    0.000024368
      5        6           0.000012478    0.000012471   -0.000001507
      6        6          -0.000000455    0.000001136   -0.000001713
      7        6          -0.000000593    0.000002652    0.000000571
      8        6           0.000000994    0.000005161   -0.000005063
      9        8          -0.000000081   -0.000019242   -0.000017775
     10        6           0.000000513    0.000002677    0.000000612
     11        6          -0.000000971    0.000005107   -0.000004955
     12        1          -0.000000006    0.000000329    0.000000431
     13        1          -0.000000001    0.000003604   -0.000004766
     14        1           0.000000376   -0.000001381   -0.000003315
     15        1           0.000001741   -0.000002020    0.000000326
     16        1          -0.000001759   -0.000002030    0.000000337
     17        1          -0.000000359   -0.000001395   -0.000003321
     18        1          -0.000002311    0.000000571    0.000000372
     19        1          -0.000000695    0.000000335   -0.000000547
     20        1           0.000001639    0.000000557    0.000000510
     21        1           0.000001879   -0.000000886    0.000002239
     22        1           0.000000639   -0.000005196    0.000001873
     23        1           0.000002937   -0.000002388    0.000004711
     24        1           0.000000718    0.000000266   -0.000000489
     25        1           0.000002453    0.000000586    0.000000290
     26        1          -0.000001669    0.000000579    0.000000494
     27        1          -0.000001827   -0.000000899    0.000002209
     28        1          -0.000002907   -0.000002337    0.000004638
     29        1          -0.000000609   -0.000005130    0.000001827
 -------------------------------------------------------------------
 Cartesian Forces:  Max     0.000024368 RMS     0.000005332
 Leave Link  716 at Wed Feb 28 21:11:36 2024, MaxMem=  2147483648 cpu:               0.6 elap:               0.0
 (Enter /software/gaussian-16RevA.03-el7-x86_64/g16/l103.exe)

 GradGradGradGradGradGradGradGradGradGradGradGradGradGradGradGradGradGrad
 Berny optimization.
 Using GEDIIS/GDIIS optimizer.
 FormGI is forming the generalized inverse of G from B-inverse, IUseBI=4.
 Internal  Forces:  Max     0.000020190 RMS     0.000003495
 Step   3 in ReCalcFC=50 IGetFC= 0 update Hessian.
 Search for a local minimum.
 Step number   3 out of a maximum of  174
 All quantities printed in internal units (Hartrees-Bohrs-Radians)
 RMS Force = .34946D-05 SwitMx=.10000D-02 MixMth= 2
 Mixed Optimization -- En-DIIS/RFO-DIIS
 Swapping is turned off.
 Update second derivatives using D2CorX and points    1    2    3
 DE= -5.21D-06 DEPred=-4.89D-06 R= 1.07D+00
 TightC=F SS=  1.41D+00  RLast= 4.31D-02 DXNew= 6.2323D-01 1.2927D-01
 Trust test= 1.07D+00 RLast= 4.31D-02 DXMaxT set to 3.71D-01
 ITU=  1  1  0
     Eigenvalues ---    0.00221   0.00255   0.00352   0.00376   0.00492
     Eigenvalues ---    0.00646   0.00756   0.01366   0.02461   0.02636
     Eigenvalues ---    0.03900   0.03963   0.04025   0.04389   0.04481
     Eigenvalues ---    0.04539   0.04546   0.04624   0.04675   0.04688
     Eigenvalues ---    0.04781   0.04805   0.04905   0.05157   0.05787
     Eigenvalues ---    0.06126   0.06298   0.06873   0.07211   0.07306
     Eigenvalues ---    0.07708   0.08459   0.09028   0.10673   0.11404
     Eigenvalues ---    0.12317   0.12479   0.12767   0.12787   0.13442
     Eigenvalues ---    0.14423   0.14764   0.14822   0.15346   0.15533
     Eigenvalues ---    0.15778   0.15921   0.16190   0.17780   0.19016
     Eigenvalues ---    0.21927   0.22131   0.26150   0.26172   0.28622
     Eigenvalues ---    0.28847   0.29066   0.29748   0.30266   0.31830
     Eigenvalues ---    0.34536   0.34667   0.34823   0.35194   0.35372
     Eigenvalues ---    0.35408   0.35602   0.35784   0.35860   0.35877
     Eigenvalues ---    0.35921   0.36099   0.36101   0.36194   0.36357
     Eigenvalues ---    0.36361   0.36440   0.36875   0.36961   0.38024
     Eigenvalues ---    0.63505
 En-DIIS/RFO-DIIS/Sim-DIIS IScMMF=       -3 using points:     3    2
 RFO step:  Lambda=-4.71166723D-08.
 NNeg= 0 NGDIIS= 2 SimSw=  2.50D-03 Rises=F DC= -5.21D-06 SmlDif=  1.00D-05
 NRisDI= 0 DoIntr=F SqrtH=F CThrHd= 10.0 CDAdj=  3.0
 RMS Error=  0.2015340497D-03 NUsed= 2 OKEnD=F EnDIS=F
 InvSVX:  RCond= 4.64D-04 Info=           0 Equed=N FErr=  9.18D-16 BErr=  2.14D-17
 DidBck=F Rises=F RFO-DIIS coefs:    1.01272   -0.01272
 Iteration  1 RMS(Cart)=  0.00028550 RMS(Int)=  0.00000006
 Iteration  2 RMS(Cart)=  0.00000006 RMS(Int)=  0.00000002
 ITry= 1 IFail=0 DXMaxC= 2.24D-03 DCOld= 1.00D+10 DXMaxT= 3.71D-01 DXLimC= 3.00D+00 Rises=F
 Variable       Old X    -DE/DX   Delta X   Delta X   Delta X     New X
                                 (Linear)    (Quad)   (Total)
    R1        2.87786   0.00000  -0.00000   0.00001   0.00001   2.87787
    R2        2.87786   0.00000  -0.00000   0.00001   0.00001   2.87787
    R3        2.08424  -0.00000   0.00001  -0.00000   0.00000   2.08424
    R4        2.08644  -0.00000   0.00001  -0.00001  -0.00001   2.08644
    R5        2.90421   0.00000   0.00000   0.00001   0.00001   2.90422
    R6        2.08552  -0.00000   0.00001  -0.00001   0.00000   2.08552
    R7        2.08905  -0.00000   0.00001  -0.00001   0.00000   2.08905
    R8        2.81709   0.00002  -0.00001   0.00006   0.00005   2.81714
    R9        2.90656  -0.00000   0.00000   0.00000   0.00000   2.90656
   R10        2.89518   0.00000   0.00000   0.00000   0.00001   2.89519
   R11        2.81709   0.00002  -0.00001   0.00006   0.00005   2.81714
   R12        2.39412   0.00002   0.00000   0.00000   0.00000   2.39413
   R13        2.90421   0.00000   0.00000   0.00001   0.00001   2.90422
   R14        2.90656  -0.00000   0.00000   0.00000   0.00000   2.90656
   R15        2.89518   0.00000   0.00000   0.00000   0.00001   2.89519
   R16        2.08905  -0.00000   0.00001  -0.00001   0.00000   2.08905
   R17        2.08552  -0.00000   0.00001  -0.00001   0.00000   2.08552
   R18        2.08303   0.00000   0.00001   0.00000   0.00001   2.08304
   R19        2.08490  -0.00000   0.00001  -0.00001   0.00000   2.08490
   R20        2.08190  -0.00000   0.00001  -0.00001  -0.00001   2.08189
   R21        2.08494  -0.00000   0.00001  -0.00001  -0.00000   2.08494
   R22        2.08478  -0.00000   0.00001  -0.00001  -0.00000   2.08478
   R23        2.07875   0.00000   0.00001   0.00000   0.00001   2.07876
   R24        2.08490  -0.00000   0.00001  -0.00001   0.00000   2.08490
   R25        2.08303   0.00000   0.00001   0.00000   0.00001   2.08304
   R26        2.08190  -0.00000   0.00001  -0.00001  -0.00001   2.08189
   R27        2.08494  -0.00000   0.00001  -0.00001  -0.00000   2.08494
   R28        2.07875   0.00000   0.00001   0.00000   0.00001   2.07876
   R29        2.08478  -0.00000   0.00001  -0.00001  -0.00000   2.08478
    A1        1.90274  -0.00000   0.00001  -0.00001  -0.00000   1.90274
    A2        1.91606   0.00000  -0.00000   0.00000  -0.00000   1.91606
    A3        1.93661   0.00000   0.00000   0.00002   0.00002   1.93663
    A4        1.91606   0.00000  -0.00000   0.00000  -0.00000   1.91606
    A5        1.93661   0.00000   0.00000   0.00002   0.00002   1.93663
    A6        1.85540  -0.00000  -0.00000  -0.00003  -0.00003   1.85537
    A7        1.98226   0.00001   0.00000   0.00003   0.00003   1.98229
    A8        1.93991  -0.00000  -0.00000   0.00002   0.00001   1.93992
    A9        1.89322  -0.00000   0.00000  -0.00002  -0.00001   1.89320
   A10        1.88507  -0.00000   0.00000   0.00001   0.00001   1.88507
   A11        1.89647  -0.00000   0.00000  -0.00004  -0.00004   1.89643
   A12        1.86283   0.00000  -0.00000   0.00001   0.00000   1.86283
   A13        1.92475  -0.00000   0.00000  -0.00005  -0.00005   1.92470
   A14        1.94434   0.00000  -0.00000   0.00005   0.00005   1.94439
   A15        1.90571  -0.00000  -0.00000   0.00000   0.00000   1.90571
   A16        1.90413  -0.00000  -0.00000   0.00001   0.00001   1.90414
   A17        1.87579   0.00000   0.00000   0.00003   0.00003   1.87582
   A18        1.90778  -0.00000  -0.00000  -0.00004  -0.00004   1.90774
   A19        2.17085  -0.00001   0.00001  -0.00011  -0.00010   2.17075
   A20        2.02717   0.00001   0.00001   0.00009   0.00010   2.02727
   A21        2.02717   0.00001   0.00001   0.00010   0.00011   2.02727
   A22        1.92475  -0.00000   0.00000  -0.00006  -0.00005   1.92470
   A23        1.90413  -0.00000  -0.00000   0.00001   0.00001   1.90414
   A24        1.87578   0.00000   0.00000   0.00003   0.00003   1.87582
   A25        1.94434   0.00000  -0.00000   0.00005   0.00005   1.94439
   A26        1.90571  -0.00000  -0.00000   0.00001   0.00000   1.90571
   A27        1.90778  -0.00000  -0.00000  -0.00004  -0.00004   1.90774
   A28        1.98226   0.00001   0.00000   0.00003   0.00003   1.98229
   A29        1.89322  -0.00000   0.00000  -0.00002  -0.00001   1.89320
   A30        1.93991  -0.00000  -0.00000   0.00002   0.00001   1.93992
   A31        1.89647  -0.00000   0.00000  -0.00004  -0.00004   1.89643
   A32        1.88507  -0.00000  -0.00000   0.00001   0.00001   1.88507
   A33        1.86283   0.00000  -0.00000   0.00001   0.00000   1.86283
   A34        1.91393  -0.00000  -0.00000  -0.00002  -0.00002   1.91391
   A35        1.91737  -0.00000   0.00000  -0.00000  -0.00000   1.91737
   A36        1.96134   0.00000  -0.00000   0.00005   0.00005   1.96138
   A37        1.89482   0.00000   0.00000  -0.00001  -0.00001   1.89482
   A38        1.89194  -0.00000  -0.00000  -0.00000  -0.00000   1.89194
   A39        1.88301  -0.00000   0.00000  -0.00001  -0.00001   1.88300
   A40        1.92948   0.00000  -0.00000   0.00004   0.00004   1.92952
   A41        1.90801   0.00000  -0.00000  -0.00001  -0.00001   1.90800
   A42        1.94155  -0.00000   0.00001  -0.00001   0.00000   1.94155
   A43        1.89216  -0.00000  -0.00000   0.00001   0.00001   1.89217
   A44        1.89317   0.00000   0.00000   0.00001   0.00001   1.89318
   A45        1.89854  -0.00000  -0.00000  -0.00005  -0.00006   1.89848
   A46        1.91737  -0.00000   0.00000  -0.00000  -0.00000   1.91737
   A47        1.91393  -0.00000  -0.00000  -0.00003  -0.00003   1.91391
   A48        1.96134   0.00000  -0.00000   0.00005   0.00005   1.96138
   A49        1.89482   0.00000   0.00000  -0.00001  -0.00001   1.89482
   A50        1.88301  -0.00000   0.00000  -0.00001  -0.00001   1.88300
   A51        1.89194  -0.00000  -0.00000  -0.00000  -0.00000   1.89194
   A52        1.92948   0.00000  -0.00000   0.00004   0.00004   1.92952
   A53        1.94155  -0.00000   0.00001  -0.00000   0.00001   1.94155
   A54        1.90801   0.00000  -0.00000  -0.00001  -0.00001   1.90800
   A55        1.89317   0.00000   0.00000   0.00001   0.00001   1.89318
   A56        1.89216  -0.00000  -0.00000   0.00001   0.00001   1.89217
   A57        1.89854  -0.00000  -0.00000  -0.00005  -0.00006   1.89848
    D1        1.02877  -0.00000  -0.00002  -0.00006  -0.00008   1.02869
    D2       -3.12450  -0.00000  -0.00002  -0.00002  -0.00003  -3.12454
    D3       -1.08167  -0.00000  -0.00002  -0.00001  -0.00003  -1.08170
    D4        3.12827  -0.00000  -0.00002  -0.00006  -0.00008   3.12819
    D5       -1.02500   0.00000  -0.00002  -0.00002  -0.00004  -1.02504
    D6        1.01783   0.00000  -0.00002  -0.00001  -0.00003   1.01779
    D7       -1.10916  -0.00000  -0.00002  -0.00008  -0.00011  -1.10926
    D8        1.02076  -0.00000  -0.00002  -0.00004  -0.00007   1.02069
    D9        3.06359  -0.00000  -0.00003  -0.00004  -0.00006   3.06352
   D10       -1.02877   0.00000   0.00002   0.00006   0.00007  -1.02869
   D11        1.08168   0.00000   0.00002   0.00001   0.00003   1.08170
   D12        3.12451   0.00000   0.00002   0.00001   0.00003   3.12454
   D13       -3.12827   0.00000   0.00002   0.00006   0.00008  -3.12819
   D14       -1.01782  -0.00000   0.00002   0.00001   0.00003  -1.01779
   D15        1.02500  -0.00000   0.00002   0.00002   0.00004   1.02504
   D16        1.10916   0.00000   0.00002   0.00008   0.00010   1.10926
   D17       -3.06358   0.00000   0.00003   0.00003   0.00006  -3.06352
   D18       -1.02075   0.00000   0.00002   0.00004   0.00006  -1.02069
   D19       -0.79375  -0.00000   0.00002  -0.00018  -0.00015  -0.79390
   D20        1.32330  -0.00000   0.00002  -0.00016  -0.00014   1.32315
   D21       -2.85108  -0.00000   0.00002  -0.00018  -0.00016  -2.85124
   D22       -2.95382  -0.00000   0.00003  -0.00022  -0.00020  -2.95401
   D23       -0.83677  -0.00000   0.00002  -0.00021  -0.00019  -0.83696
   D24        1.27204  -0.00000   0.00002  -0.00022  -0.00020   1.27184
   D25        1.31487  -0.00000   0.00003  -0.00021  -0.00018   1.31468
   D26       -2.85127  -0.00000   0.00002  -0.00020  -0.00017  -2.85145
   D27       -0.74246  -0.00000   0.00002  -0.00021  -0.00019  -0.74265
   D28        0.61387  -0.00000  -0.00002   0.00041   0.00039   0.61426
   D29       -2.90205   0.00001   0.00009   0.00069   0.00077  -2.90127
   D30       -1.52694  -0.00000  -0.00002   0.00038   0.00035  -1.52658
   D31        1.24033   0.00001   0.00009   0.00065   0.00074   1.24107
   D32        2.68953  -0.00000  -0.00002   0.00040   0.00038   2.68991
   D33       -0.82638   0.00001   0.00009   0.00068   0.00077  -0.82562
   D34        1.18593   0.00000  -0.00003   0.00037   0.00034   1.18627
   D35       -3.01609   0.00000  -0.00003   0.00035   0.00032  -3.01578
   D36       -0.91061  -0.00000  -0.00003   0.00036   0.00033  -0.91028
   D37       -2.96823   0.00000  -0.00003   0.00034   0.00031  -2.96792
   D38       -0.88707   0.00000  -0.00003   0.00032   0.00029  -0.88678
   D39        1.21841   0.00000  -0.00003   0.00033   0.00030   1.21871
   D40       -0.92167   0.00000  -0.00002   0.00036   0.00033  -0.92133
   D41        1.15949   0.00000  -0.00002   0.00033   0.00031   1.15980
   D42       -3.01821   0.00000  -0.00003   0.00035   0.00032  -3.01789
   D43        1.11523  -0.00000   0.00011  -0.00006   0.00005   1.11528
   D44       -3.06343   0.00000   0.00012  -0.00002   0.00009  -3.06333
   D45       -0.96640  -0.00000   0.00011  -0.00009   0.00002  -0.96638
   D46       -0.97262  -0.00000   0.00010  -0.00001   0.00009  -0.97253
   D47        1.13191   0.00000   0.00011   0.00002   0.00014   1.13205
   D48       -3.05425  -0.00000   0.00011  -0.00005   0.00006  -3.05419
   D49       -3.03698   0.00000   0.00010  -0.00002   0.00009  -3.03689
   D50       -0.93245   0.00000   0.00011   0.00002   0.00013  -0.93232
   D51        1.16458  -0.00000   0.00011  -0.00005   0.00006   1.16464
   D52       -0.61387   0.00000   0.00002  -0.00042  -0.00039  -0.61426
   D53        1.52694   0.00000   0.00002  -0.00038  -0.00036   1.52658
   D54       -2.68953   0.00000   0.00002  -0.00041  -0.00038  -2.68991
   D55        2.90205  -0.00001  -0.00009  -0.00069  -0.00078   2.90127
   D56       -1.24033  -0.00001  -0.00009  -0.00066  -0.00074  -1.24107
   D57        0.82638  -0.00001  -0.00009  -0.00068  -0.00077   0.82562
   D58        0.79375   0.00000  -0.00002   0.00018   0.00016   0.79390
   D59       -1.31487   0.00000  -0.00003   0.00021   0.00019  -1.31468
   D60        2.95381   0.00000  -0.00003   0.00023   0.00020   2.95401
   D61       -1.32330   0.00000  -0.00002   0.00017   0.00015  -1.32315
   D62        2.85127   0.00000  -0.00003   0.00020   0.00018   2.85145
   D63        0.83677   0.00000  -0.00002   0.00022   0.00019   0.83696
   D64        2.85107   0.00000  -0.00002   0.00018   0.00017   2.85124
   D65        0.74246   0.00000  -0.00002   0.00022   0.00020   0.74265
   D66       -1.27204   0.00000  -0.00002   0.00023   0.00021  -1.27183
   D67        0.88706  -0.00000   0.00002  -0.00030  -0.00027   0.88678
   D68        2.96821  -0.00000   0.00003  -0.00032  -0.00030   2.96792
   D69       -1.21843  -0.00000   0.00003  -0.00031  -0.00028  -1.21871
   D70        3.01608  -0.00000   0.00002  -0.00032  -0.00030   3.01578
   D71       -1.18595  -0.00000   0.00003  -0.00035  -0.00032  -1.18627
   D72        0.91059   0.00000   0.00003  -0.00034  -0.00031   0.91028
   D73       -1.15951  -0.00000   0.00002  -0.00031  -0.00029  -1.15980
   D74        0.92165  -0.00000   0.00002  -0.00034  -0.00032   0.92133
   D75        3.01819  -0.00000   0.00002  -0.00033  -0.00030   3.01789
   D76        0.97261   0.00000  -0.00011   0.00002  -0.00009   0.97253
   D77        3.05424   0.00000  -0.00011   0.00005  -0.00006   3.05418
   D78       -1.13192  -0.00000  -0.00011  -0.00002  -0.00013  -1.13205
   D79       -1.11524   0.00000  -0.00011   0.00007  -0.00004  -1.11528
   D80        0.96639   0.00000  -0.00012   0.00010  -0.00001   0.96638
   D81        3.06342  -0.00000  -0.00012   0.00003  -0.00009   3.06333
   D82        3.03697  -0.00000  -0.00011   0.00003  -0.00008   3.03689
   D83       -1.16459   0.00000  -0.00011   0.00006  -0.00005  -1.16464
   D84        0.93244  -0.00000  -0.00011  -0.00001  -0.00012   0.93232
         Item               Value     Threshold  Converged?
 Maximum Force            0.000020     0.000450     YES
 RMS     Force            0.000003     0.000300     YES
 Maximum Displacement     0.002238     0.001800     NO 
 RMS     Displacement     0.000286     0.001200     YES
 Predicted change in Energy=-2.355837D-08
 Lowest energy point so far.  Saving SCF results.
 Step   3 in ReCalcFC=50 IGetFC= 0 compute gradient.
 GradGradGradGradGradGradGradGradGradGradGradGradGradGradGradGradGradGrad

 Leave Link  103 at Wed Feb 28 21:11:37 2024, MaxMem=  2147483648 cpu:               5.5 elap:               0.3
 (Enter /software/gaussian-16RevA.03-el7-x86_64/g16/l202.exe)
                          Input orientation:                          
 ---------------------------------------------------------------------
 Center     Atomic      Atomic             Coordinates (Angstroms)
 Number     Number       Type             X           Y           Z
 ---------------------------------------------------------------------
      1          6           0        0.000057    2.119337   -0.001270
      2          6           0       -1.239913    1.385366   -0.494216
      3          6           0       -1.318536   -0.074820   -0.021385
      4          7           0        0.000006   -0.747232   -0.199421
      5          6           0        1.318567   -0.074870   -0.021343
      6          6           0        1.240014    1.385319   -0.494176
      7          6           0        1.733702   -0.164659    1.456937
      8          6           0        2.338975   -0.828250   -0.880656
      9          8           0       -0.000020   -2.010571   -0.104250
     10          6           0       -1.733720   -0.164594    1.456882
     11          6           0       -2.338944   -0.828162   -0.880731
     12          1           0        0.000082    3.152707   -0.386760
     13          1           0        0.000041    2.199288    1.099926
     14          1           0       -2.161592    1.898875   -0.170531
     15          1           0       -1.239087    1.399599   -1.599601
     16          1           0        1.239224    1.399551   -1.599562
     17          1           0        2.161703    1.898793   -0.170463
     18          1           0        1.656119   -1.208964    1.801128
     19          1           0        2.779580    0.166756    1.573278
     20          1           0        1.105208    0.463683    2.108016
     21          1           0        2.005609   -0.868743   -1.931609
     22          1           0        3.307794   -0.301926   -0.842414
     23          1           0        2.480888   -1.857787   -0.520122
     24          1           0       -2.779590    0.166860    1.573191
     25          1           0       -1.656188   -1.208902    1.801075
     26          1           0       -1.105223    0.463724    2.107980
     27          1           0       -2.005546   -0.868666   -1.931673
     28          1           0       -2.480907   -1.857694   -0.520202
     29          1           0       -3.307745   -0.301801   -0.842520
 ---------------------------------------------------------------------
                    Distance matrix (angstroms):
                    1          2          3          4          5
     1  C    0.000000
     2  C    1.522903   0.000000
     3  C    2.559964   1.536845   0.000000
     4  N    2.873409   2.484406   1.490767   0.000000
     5  C    2.559964   2.983574   2.637103   1.490767   0.000000
     6  C    1.522903   2.479927   2.983574   2.484406   1.536845
     7  C    3.216912   3.879685   3.392589   2.467511   1.538086
     8  C    3.864211   4.225857   3.831891   2.437503   1.532068
     9  O    4.131191   3.636178   2.343604   1.266918   2.343605
    10  C    3.216913   2.540276   1.538086   2.467511   3.392589
    11  C    3.864211   2.501393   1.532068   2.437503   3.831890
    12  H    1.102931   2.161627   3.505593   3.904436   3.505593
    13  H    1.104094   2.177439   2.857892   3.220292   2.857892
    14  H    2.179445   1.103611   2.151386   3.416902   4.003678
    15  H    2.146664   1.105477   2.161247   2.846883   3.347619
    16  H    2.146664   2.714427   3.347619   2.846882   2.161247
    17  H    2.179445   3.455346   4.003678   3.416902   2.151386
    18  H    4.131436   4.515103   3.668298   2.637822   2.172904
    19  H    3.743998   4.681438   4.404073   3.421092   2.176180
    20  H    2.900282   3.622250   3.270912   2.830556   2.206746
    21  H    4.083757   4.204821   3.915253   2.652863   2.179765
    22  H    4.184634   4.863109   4.704104   3.399000   2.163963
    23  H    4.716063   4.935896   4.226504   2.736962   2.185993
    24  H    3.743999   2.851233   2.176180   3.421092   4.404073
    25  H    4.131436   3.488821   2.172904   2.637821   3.668297
    26  H    2.900282   2.763872   2.206746   2.830556   3.270911
    27  H    4.083756   2.780852   2.179765   2.652863   3.915253
    28  H    4.716062   3.472489   2.185993   2.736961   4.226503
    29  H    4.184634   2.691427   2.163963   3.399000   4.704104
                    6          7          8          9         10
     6  C    0.000000
     7  C    2.540276   0.000000
     8  C    2.501394   2.504206   0.000000
     9  O    3.636178   2.974976   2.733419   0.000000
    10  C    3.879685   3.467422   4.742506   2.974976   0.000000
    11  C    4.225856   4.742507   4.677919   2.733419   2.504206
    12  H    2.161627   4.172478   4.643530   5.171001   4.172478
    13  H    2.177439   2.953181   4.308051   4.378693   2.953182
    14  H    3.455345   4.698951   5.310046   4.467724   2.662602
    15  H    2.714427   4.541674   4.275830   3.924362   3.468926
    16  H    1.105477   3.468926   2.586383   3.924362   4.541674
    17  H    1.103611   2.662602   2.823573   4.467724   4.698951
    18  H    3.488821   1.102298   2.793421   2.648742   3.563738
    19  H    2.851233   1.103283   2.684393   3.909095   4.526944
    20  H    2.763872   1.101690   3.481872   3.498225   2.979634
    21  H    2.780853   3.471586   1.103302   2.943732   5.095123
    22  H    2.691427   2.789915   1.103219   3.795522   5.542787
    23  H    3.472489   2.708087   1.100032   2.520158   4.953622
    24  H    4.681438   4.526944   5.762925   3.909095   1.103283
    25  H    4.515102   3.563738   4.826790   2.648741   1.102298
    26  H    3.622250   2.979634   4.739583   3.498224   1.101690
    27  H    4.204820   5.095123   4.470026   2.943732   3.471586
    28  H    4.935896   4.953622   4.941755   2.520157   2.708087
    29  H    4.863109   5.542787   5.671335   3.795521   2.789915
                   11         12         13         14         15
    11  C    0.000000
    12  H    4.643530   0.000000
    13  H    4.308051   1.766138   0.000000
    14  H    2.823573   2.508324   2.525266   0.000000
    15  H    2.586383   2.465748   3.076099   1.772719   0.000000
    16  H    4.275829   2.465748   3.076100   3.722500   2.478312
    17  H    5.310046   2.508324   2.525266   4.323295   3.722500
    18  H    4.826791   5.153008   3.853629   5.302926   5.172213
    19  H    5.762925   4.525844   3.475786   5.518722   5.266570
    20  H    4.739583   3.830935   2.291280   4.233619   4.485319
    21  H    4.470026   4.751921   4.756608   5.303458   3.972865
    22  H    5.671335   4.804484   4.579300   5.933729   4.913517
    23  H    4.941756   5.592606   5.023845   5.982253   5.061033
    24  H    2.684393   4.525845   3.475786   2.534238   3.736228
    25  H    2.793421   5.153008   3.853630   3.714962   4.306141
    26  H    3.481872   3.830935   2.291280   2.892609   3.826218
    27  H    1.103302   4.751920   4.756607   3.284091   2.417179
    28  H    1.100032   5.592605   5.023845   3.786296   3.649270
    29  H    1.103219   4.804484   4.579300   2.570644   2.783393
                   16         17         18         19         20
    16  H    0.000000
    17  H    1.772719   0.000000
    18  H    4.306141   3.714961   0.000000
    19  H    3.736228   2.534237   1.790722   0.000000
    20  H    3.826218   2.892609   1.787577   1.782591   0.000000
    21  H    2.417180   3.284092   3.764468   3.735709   4.347947
    22  H    2.783393   2.570643   3.246393   2.516792   3.760662
    23  H    3.649271   3.786296   2.547434   2.927510   3.766806
    24  H    5.266570   5.518722   4.649770   5.559170   3.932658
    25  H    5.172212   5.302926   3.312307   4.649770   3.243002
    26  H    4.485318   4.233619   3.243001   3.932657   2.210431
    27  H    3.972864   5.303457   5.239981   6.021148   5.269823
    28  H    5.061032   5.982252   4.787945   6.012802   5.015630
    29  H    4.913517   5.933729   5.696645   6.565908   5.363374
                   21         22         23         24         25
    21  H    0.000000
    22  H    1.789780   0.000000
    23  H    1.787846   1.791187   0.000000
    24  H    6.021148   6.565908   6.012802   0.000000
    25  H    5.239980   5.696645   4.787944   1.790722   0.000000
    26  H    5.269822   5.363373   5.015629   1.782591   1.787577
    27  H    4.011155   5.453372   4.806135   3.735710   3.764468
    28  H    4.806134   6.002774   4.961795   2.927511   2.547434
    29  H    5.453372   6.615539   6.002775   2.516793   3.246393
                   26         27         28         29
    26  H    0.000000
    27  H    4.347947   0.000000
    28  H    3.766806   1.787846   0.000000
    29  H    3.760662   1.789780   1.791187   0.000000
 Symmetry turned off by external request.
 Stoichiometry    C9H18NO(2)
 Framework group  C1[X(C9H18NO)]
 Deg. of freedom    81
 Full point group                 C1      NOp   1
 Rotational constants (GHZ):           1.4844273           1.0675155           0.8588290
 Leave Link  202 at Wed Feb 28 21:11:37 2024, MaxMem=  2147483648 cpu:               1.3 elap:               0.1
 (Enter /software/gaussian-16RevA.03-el7-x86_64/g16/l301.exe)
 Standard basis: def2SVPP (5D, 7F)
 Ernie: Thresh=  0.10000D-02 Tol=  0.10000D-05 Strict=F.
   190 basis functions,   347 primitive gaussians,   201 cartesian basis functions
    44 alpha electrons       43 beta electrons
       nuclear repulsion energy       716.4616937866 Hartrees.
 IExCor= 4639 DFT=T Ex+Corr=wB97XD ExCW=0 ScaHFX=  1.000000
 ScaDFX=  1.000000  1.000000  1.000000  1.000000 ScalE2=  1.000000  1.000000
 IRadAn=      5 IRanWt=     -1 IRanGd=            0 ICorTp=0 IEmpDi=121
 HFx  wShort=  0.000000 wLong=  0.200000 cFull=  0.222036 cShort=  0.000000 cLong=  0.777964
 DFx  wShort=  0.000000 wLong=  0.200000 cFull=  0.000000 cShort=  0.000000 cLong=  1.000000
 NAtoms=   29 NActive=   29 NUniq=   29 SFac= 1.00D+00 NAtFMM=   60 NAOKFM=F Big=F
 Integral buffers will be    131072 words long.
 Raffenetti 2 integral format.
 Two-electron integral symmetry is turned off.
 R6Disp:  Grimme-D2 Dispersion energy=       -0.0257193275 Hartrees.
 Nuclear repulsion after empirical dispersion term =      716.4359744591 Hartrees.
 Force inversion solution in PCM.
 ------------------------------------------------------------------------------
 Polarizable Continuum Model (PCM)
 =================================
 Model                : PCM.
 Atomic radii         : UFF (Universal Force Field).
 Polarization charges : Total charges.
 Charge compensation  : None.
 Solution method      : Matrix inversion.
 Cavity type          : Scaled VdW (van der Waals Surface) (Alpha=1.100).
 Cavity algorithm     : GePol (No added spheres)
                        Default sphere list used, NSphG=   29.
                        Lebedev-Laikov grids with approx.  5.0 points / Ang**2.
                        Smoothing algorithm: York/Karplus (Gamma=1.0000).
                        Polarization charges: spherical gaussians, with
                                              point-specific exponents (IZeta= 3).
                        Self-potential: point-specific (ISelfS= 7).
                        Self-field    : sphere-specific E.n sum rule (ISelfD= 2).
 1st derivatives      : Analytical E(r).r(x)/FMM algorithm (CHGder, D1EAlg=3).
                        Cavity 1st derivative terms included.
 Solvent              : TetraHydroFuran, Eps=   7.425700 Eps(inf)=   1.974025
 ------------------------------------------------------------------------------
 GePol: Number of generator spheres                  =      29
 GePol: Total number of spheres                      =      29
 GePol: Number of exposed spheres                    =      29 (100.00%)
 GePol: Number of points                             =    1749
 GePol: Average weight of points                     =       0.14
 GePol: Minimum weight of points                     =   0.54D-10
 GePol: Maximum weight of points                     =    0.20577
 GePol: Number of points with low weight             =      98
 GePol: Fraction of low-weight points (<1% of avg)   =       5.60%
 GePol: Cavity surface area                          =    236.610 Ang**2
 GePol: Cavity volume                                =    256.581 Ang**3
 Leave Link  301 at Wed Feb 28 21:11:37 2024, MaxMem=  2147483648 cpu:               2.5 elap:               0.1
 (Enter /software/gaussian-16RevA.03-el7-x86_64/g16/l302.exe)
 NPDir=0 NMtPBC=     1 NCelOv=     1 NCel=       1 NClECP=     1 NCelD=      1
         NCelK=      1 NCelE2=     1 NClLst=     1 CellRange=     0.0.
 One-electron integrals computed using PRISM.
   1 Symmetry operations used in ECPInt.
 ECPInt:  NShTT=    5253 NPrTT=   21107 LenC2=    5228 LenP2D=   16397.
 LDataN:  DoStor=T MaxTD1= 4 Len=   56
 NBasis=   190 RedAO= T EigKep=  1.01D-03  NBF=   190
 NBsUse=   190 1.00D-06 EigRej= -1.00D+00 NBFU=   190
 Precomputing XC quadrature grid using
 IXCGrd= 4 IRadAn=           5 IRanWt=          -1 IRanGd=           0 AccXCQ= 0.00D+00.
 Generated NRdTot=       0 NPtTot=           0 NUsed=           0 NTot=          32
 NSgBfM=   201   201   201   201   201 MxSgAt=    29 MxSgA2=    29.
 Leave Link  302 at Wed Feb 28 21:11:37 2024, MaxMem=  2147483648 cpu:               6.8 elap:               0.3
 (Enter /software/gaussian-16RevA.03-el7-x86_64/g16/l303.exe)
 DipDrv:  MaxL=1.
 Leave Link  303 at Wed Feb 28 21:11:37 2024, MaxMem=  2147483648 cpu:               0.8 elap:               0.0
 (Enter /software/gaussian-16RevA.03-el7-x86_64/g16/l401.exe)
 Initial guess from the checkpoint file:  "TEMPO-cavity-in-THF-wB97XD.chk"
 B after Tr=    -0.000000   -0.000002   -0.000195
         Rot=    1.000000   -0.000039   -0.000000    0.000000 Ang=  -0.00 deg.
 Guess basis will be translated and rotated to current coordinates.
 JPrj=2 DoOrth=T DoCkMO=T.
 Initial guess <Sx>= 0.0000 <Sy>= 0.0000 <Sz>= 0.5000 <S**2>= 0.7539 S= 0.5020
 Leave Link  401 at Wed Feb 28 21:11:37 2024, MaxMem=  2147483648 cpu:               4.4 elap:               0.2
 (Enter /software/gaussian-16RevA.03-el7-x86_64/g16/l502.exe)
 Two-electron integral symmetry not used.
 UHF open shell SCF:
 Using DIIS extrapolation, IDIIS=  1040.
 NGot=  2147483648 LenX=  2147395142 LenY=  2147354300
 Requested convergence on RMS density matrix=1.00D-08 within  32 cycles.
 Requested convergence on MAX density matrix=1.00D-06.
 Requested convergence on             energy=1.00D-06.
 No special actions if energy rises.
 Fock matrices will be formed incrementally for  20 cycles.

 Cycle   1  Pass 1  IDiag  1:
 FoFJK:  IHMeth= 1 ICntrl=       0 DoSepK=T KAlg= 0 I1Cent=           0 FoldK=F
 IRaf=         1 NMat=       1 IRICut=       1 DoRegI=T DoRafI=F ISym2E= 0 IDoP0=0 IntGTp=1.
 FoFCou: FMM=F IPFlag=           0 FMFlag=      100000 FMFlg1=           0
         NFxFlg=           0 DoJE=T BraDBF=F KetDBF=F FulRan=T
         wScrn=  0.000000 ICntrl=       500 IOpCl=  0 I1Cent=           0 NGrid=           0
         NMat0=    1 NMatS0=      1 NMatT0=    0 NMatD0=    1 NMtDS0=    0 NMtDT0=    0
 Symmetry not used in FoFCou.
 Inv3:  Mode=1 IEnd=     9177003.
 Iteration    1 A*A^-1 deviation from unit magnitude is 3.11D-15 for    200.
 Iteration    1 A*A^-1 deviation from orthogonality  is 2.22D-15 for   1466    399.
 Iteration    1 A^-1*A deviation from unit magnitude is 3.33D-15 for    200.
 Iteration    1 A^-1*A deviation from orthogonality  is 1.78D-15 for   1448    433.
 E= -483.204959579901    
 DIIS: error= 4.73D-05 at cycle   1 NSaved=   1.
 NSaved= 1 IEnMin= 1 EnMin= -483.204959579901     IErMin= 1 ErrMin= 4.73D-05
 ErrMax= 4.73D-05  0.00D+00 EMaxC= 1.00D-01 BMatC= 9.33D-07 BMatP= 9.33D-07
 IDIUse=1 WtCom= 1.00D+00 WtEn= 0.00D+00
 Coeff-Com:  0.100D+01
 Coeff:      0.100D+01
 Gap=     0.656 Goal=   None    Shift=    0.000
 Gap=     0.708 Goal=   None    Shift=    0.000
 RMSDP=3.99D-06 MaxDP=1.52D-04              OVMax= 1.80D-04

 Cycle   2  Pass 1  IDiag  1:
 RMSU=  3.99D-06    CP:  1.00D+00
 E= -483.204959972323     Delta-E=       -0.000000392421 Rises=F Damp=F
 DIIS: error= 1.26D-05 at cycle   2 NSaved=   2.
 NSaved= 2 IEnMin= 2 EnMin= -483.204959972323     IErMin= 2 ErrMin= 1.26D-05
 ErrMax= 1.26D-05  0.00D+00 EMaxC= 1.00D-01 BMatC= 4.29D-08 BMatP= 9.33D-07
 IDIUse=1 WtCom= 1.00D+00 WtEn= 0.00D+00
 Coeff-Com: -0.205D+00 0.120D+01
 Coeff:     -0.205D+00 0.120D+01
 Gap=     0.399 Goal=   None    Shift=    0.000
 Gap=     0.352 Goal=   None    Shift=    0.000
 RMSDP=1.37D-06 MaxDP=5.32D-05 DE=-3.92D-07 OVMax= 6.83D-05

 Cycle   3  Pass 1  IDiag  1:
 RMSU=  7.49D-07    CP:  1.00D+00  1.29D+00
 E= -483.204960003317     Delta-E=       -0.000000030995 Rises=F Damp=F
 DIIS: error= 4.58D-06 at cycle   3 NSaved=   3.
 NSaved= 3 IEnMin= 3 EnMin= -483.204960003317     IErMin= 3 ErrMin= 4.58D-06
 ErrMax= 4.58D-06  0.00D+00 EMaxC= 1.00D-01 BMatC= 2.53D-09 BMatP= 4.29D-08
 IDIUse=1 WtCom= 1.00D+00 WtEn= 0.00D+00
 Coeff-Com: -0.888D-02-0.443D-01 0.105D+01
 Coeff:     -0.888D-02-0.443D-01 0.105D+01
 Gap=     0.399 Goal=   None    Shift=    0.000
 Gap=     0.352 Goal=   None    Shift=    0.000
 RMSDP=3.36D-07 MaxDP=1.07D-05 DE=-3.10D-08 OVMax= 2.20D-05

 Cycle   4  Pass 1  IDiag  1:
 RMSU=  2.31D-07    CP:  1.00D+00  1.32D+00  1.28D+00
 E= -483.204960005133     Delta-E=       -0.000000001815 Rises=F Damp=F
 DIIS: error= 2.25D-06 at cycle   4 NSaved=   4.
 NSaved= 4 IEnMin= 4 EnMin= -483.204960005133     IErMin= 4 ErrMin= 2.25D-06
 ErrMax= 2.25D-06  0.00D+00 EMaxC= 1.00D-01 BMatC= 1.19D-09 BMatP= 2.53D-09
 IDIUse=1 WtCom= 1.00D+00 WtEn= 0.00D+00
 Coeff-Com:  0.236D-01-0.181D+00 0.440D+00 0.717D+00
 Coeff:      0.236D-01-0.181D+00 0.440D+00 0.717D+00
 Gap=     0.399 Goal=   None    Shift=    0.000
 Gap=     0.352 Goal=   None    Shift=    0.000
 RMSDP=1.44D-07 MaxDP=5.28D-06 DE=-1.82D-09 OVMax= 9.11D-06

 Cycle   5  Pass 1  IDiag  1:
 RMSU=  9.40D-08    CP:  1.00D+00  1.32D+00  1.42D+00  9.44D-01
 E= -483.204960005635     Delta-E=       -0.000000000503 Rises=F Damp=F
 DIIS: error= 1.09D-06 at cycle   5 NSaved=   5.
 NSaved= 5 IEnMin= 5 EnMin= -483.204960005635     IErMin= 5 ErrMin= 1.09D-06
 ErrMax= 1.09D-06  0.00D+00 EMaxC= 1.00D-01 BMatC= 1.13D-10 BMatP= 1.19D-09
 IDIUse=1 WtCom= 1.00D+00 WtEn= 0.00D+00
 Coeff-Com:  0.159D-02 0.665D-02-0.174D+00-0.169D-02 0.117D+01
 Coeff:      0.159D-02 0.665D-02-0.174D+00-0.169D-02 0.117D+01
 Gap=     0.399 Goal=   None    Shift=    0.000
 Gap=     0.352 Goal=   None    Shift=    0.000
 RMSDP=8.59D-08 MaxDP=4.27D-06 DE=-5.03D-10 OVMax= 6.33D-06

 Cycle   6  Pass 1  IDiag  1:
 RMSU=  4.03D-08    CP:  1.00D+00  1.32D+00  1.47D+00  1.14D+00  1.52D+00
 E= -483.204960005736     Delta-E=       -0.000000000101 Rises=F Damp=F
 DIIS: error= 4.20D-07 at cycle   6 NSaved=   6.
 NSaved= 6 IEnMin= 6 EnMin= -483.204960005736     IErMin= 6 ErrMin= 4.20D-07
 ErrMax= 4.20D-07  0.00D+00 EMaxC= 1.00D-01 BMatC= 6.77D-11 BMatP= 1.13D-10
 IDIUse=1 WtCom= 1.00D+00 WtEn= 0.00D+00
 Coeff-Com: -0.355D-02 0.388D-01-0.186D+00-0.139D+00 0.683D+00 0.607D+00
 Coeff:     -0.355D-02 0.388D-01-0.186D+00-0.139D+00 0.683D+00 0.607D+00
 Gap=     0.399 Goal=   None    Shift=    0.000
 Gap=     0.352 Goal=   None    Shift=    0.000
 RMSDP=3.32D-08 MaxDP=1.32D-06 DE=-1.01D-10 OVMax= 2.09D-06

 Cycle   7  Pass 1  IDiag  1:
 RMSU=  1.64D-08    CP:  1.00D+00  1.32D+00  1.48D+00  1.21D+00  1.73D+00
                    CP:  7.74D-01
 E= -483.204960005753     Delta-E=       -0.000000000016 Rises=F Damp=F
 DIIS: error= 8.02D-08 at cycle   7 NSaved=   7.
 NSaved= 7 IEnMin= 7 EnMin= -483.204960005753     IErMin= 7 ErrMin= 8.02D-08
 ErrMax= 8.02D-08  0.00D+00 EMaxC= 1.00D-01 BMatC= 2.19D-12 BMatP= 6.77D-11
 IDIUse=1 WtCom= 1.00D+00 WtEn= 0.00D+00
 Coeff-Com: -0.113D-02 0.909D-02-0.226D-01-0.368D-01 0.154D-01 0.140D+00
 Coeff-Com:  0.896D+00
 Coeff:     -0.113D-02 0.909D-02-0.226D-01-0.368D-01 0.154D-01 0.140D+00
 Coeff:      0.896D+00
 Gap=     0.399 Goal=   None    Shift=    0.000
 Gap=     0.352 Goal=   None    Shift=    0.000
 RMSDP=1.02D-08 MaxDP=4.11D-07 DE=-1.65D-11 OVMax= 7.96D-07

 Cycle   8  Pass 1  IDiag  1:
 RMSU=  5.20D-09    CP:  1.00D+00  1.32D+00  1.48D+00  1.23D+00  1.80D+00
                    CP:  8.92D-01  1.08D+00
 E= -483.204960005754     Delta-E=       -0.000000000001 Rises=F Damp=F
 DIIS: error= 2.79D-08 at cycle   8 NSaved=   8.
 NSaved= 8 IEnMin= 8 EnMin= -483.204960005754     IErMin= 8 ErrMin= 2.79D-08
 ErrMax= 2.79D-08  0.00D+00 EMaxC= 1.00D-01 BMatC= 4.61D-13 BMatP= 2.19D-12
 IDIUse=1 WtCom= 1.00D+00 WtEn= 0.00D+00
 Coeff-Com: -0.126D-03 0.168D-03 0.698D-02-0.250D-02-0.475D-01-0.116D-01
 Coeff-Com:  0.351D+00 0.704D+00
 Coeff:     -0.126D-03 0.168D-03 0.698D-02-0.250D-02-0.475D-01-0.116D-01
 Coeff:      0.351D+00 0.704D+00
 Gap=     0.399 Goal=   None    Shift=    0.000
 Gap=     0.352 Goal=   None    Shift=    0.000
 RMSDP=3.20D-09 MaxDP=7.09D-08 DE=-1.48D-12 OVMax= 1.46D-07

 Error on total polarization charges =  0.00828
 SCF Done:  E(UwB97XD) =  -483.204960006     A.U. after    8 cycles
            NFock=  8  Conv=0.32D-08     -V/T= 2.0105
 <Sx>= 0.0000 <Sy>= 0.0000 <Sz>= 0.5000 <S**2>= 0.7539 S= 0.5020
 <L.S>=  0.00000000000    
 KE= 4.781680198740D+02 PE=-2.553785827914D+03 EE= 8.759768735750D+02
 Annihilation of the first spin contaminant:
 S**2 before annihilation     0.7539,   after     0.7500
 Leave Link  502 at Wed Feb 28 21:11:51 2024, MaxMem=  2147483648 cpu:             366.2 elap:              13.4
 (Enter /software/gaussian-16RevA.03-el7-x86_64/g16/l508.exe)
 QCSCF skips out because SCF is already converged.
 Leave Link  508 at Wed Feb 28 21:11:51 2024, MaxMem=  2147483648 cpu:               0.8 elap:               0.1
 (Enter /software/gaussian-16RevA.03-el7-x86_64/g16/l801.exe)
 DoSCS=F DFT=T ScalE2(SS,OS)=  1.000000  1.000000
 Range of M.O.s used for correlation:     1   190
 NBasis=   190 NAE=    44 NBE=    43 NFC=     0 NFV=     0
 NROrb=    190 NOA=    44 NOB=    43 NVA=   146 NVB=   147
 Leave Link  801 at Wed Feb 28 21:11:51 2024, MaxMem=  2147483648 cpu:               0.6 elap:               0.0
 (Enter /software/gaussian-16RevA.03-el7-x86_64/g16/l1101.exe)
 Leave Link 1101 at Wed Feb 28 21:11:51 2024, MaxMem=  2147483648 cpu:               2.0 elap:               0.1
 (Enter /software/gaussian-16RevA.03-el7-x86_64/g16/l1102.exe)
 Symmetrizing basis deriv contribution to polar:
 IMax=3 JMax=2 DiffMx= 0.00D+00
 Leave Link 1102 at Wed Feb 28 21:11:51 2024, MaxMem=  2147483648 cpu:               1.0 elap:               0.1
 (Enter /software/gaussian-16RevA.03-el7-x86_64/g16/l1110.exe)
 Leave Link 1110 at Wed Feb 28 21:11:51 2024, MaxMem=  2147483648 cpu:               1.7 elap:               0.1
 (Enter /software/gaussian-16RevA.03-el7-x86_64/g16/l1002.exe)
 Minotr:  UHF open shell wavefunction.
 Leave Link 1002 at Wed Feb 28 21:11:51 2024, MaxMem=  2147483648 cpu:               1.6 elap:               0.1
 (Enter /software/gaussian-16RevA.03-el7-x86_64/g16/l701.exe)
 ... and contract with generalized density number  0.
 Compute integral first derivatives.
 R6Disp: Adding Grimme-D2 dispersion energy 1st derivatives to the gradient.
   1 Symmetry operations used in ECPInt.
 ECPInt:  NShTT=    5253 NPrTT=   21107 LenC2=    5228 LenP2D=   16397.
 LDataN:  DoStor=T MaxTD1= 5 Len=  102
 D1PCM: PCM CHGder 1st derivatives, ID1Alg=3 FixD1E=F DoIter=F DoCFld=F I1PDM=0.
 GePol: Maximum number of non-zero 1st derivatives   =     166
 Leave Link  701 at Wed Feb 28 21:11:52 2024, MaxMem=  2147483648 cpu:              20.8 elap:               0.8
 (Enter /software/gaussian-16RevA.03-el7-x86_64/g16/l702.exe)
 L702 exits ... SP integral derivatives will be done elsewhere.
 Leave Link  702 at Wed Feb 28 21:11:52 2024, MaxMem=  2147483648 cpu:               1.0 elap:               0.1
 (Enter /software/gaussian-16RevA.03-el7-x86_64/g16/l703.exe)
 Integral derivatives from FoFJK, PRISM(SPDF).
 Compute integral first derivatives, UseDBF=F ICtDFT=           0.
 Calling FoFJK, ICntrl=      2127 FMM=F ISym2X=0 I1Cent= 0 IOpClX= 1 NMat=1 NMatS=1 NMatT=0.
 FoFJK:  IHMeth= 1 ICntrl=    2127 DoSepK=T KAlg= 0 I1Cent=           0 FoldK=F
 IRaf=         1 NMat=       1 IRICut=       1 DoRegI=T DoRafI=F ISym2E= 0 IDoP0=0 IntGTp=1.
 FoFCou: FMM=F IPFlag=           0 FMFlag=      100000 FMFlg1=         800
         NFxFlg=           0 DoJE=F BraDBF=F KetDBF=F FulRan=T
         wScrn=  0.000000 ICntrl=      2527 IOpCl=  0 I1Cent=           0 NGrid=           0
         NMat0=    1 NMatS0=      1 NMatT0=    0 NMatD0=    1 NMtDS0=    0 NMtDT0=    0
 Symmetry not used in FoFCou.
 Leave Link  703 at Wed Feb 28 21:11:55 2024, MaxMem=  2147483648 cpu:              85.3 elap:               3.1
 (Enter /software/gaussian-16RevA.03-el7-x86_64/g16/l716.exe)
 Dipole        = 2.75560513D-05 1.50224760D+00 1.15559670D-01
 Polarizability= 0.00000000D+00 0.00000000D+00 0.00000000D+00
                 0.00000000D+00 0.00000000D+00 0.00000000D+00
 -------------------------------------------------------------------
 Center     Atomic                   Forces (Hartrees/Bohr)
 Number     Number              X              Y              Z
 -------------------------------------------------------------------
      1        6          -0.000000000    0.000001052   -0.000000245
      2        6          -0.000000977    0.000000114   -0.000001573
      3        6          -0.000000042    0.000000492    0.000000718
      4        7           0.000000001   -0.000001164    0.000000543
      5        6           0.000000037    0.000000491    0.000000714
      6        6           0.000000982    0.000000113   -0.000001578
      7        6           0.000000242    0.000001063    0.000001192
      8        6           0.000000212   -0.000000816   -0.000000106
      9        8           0.000000007   -0.000000803   -0.000001441
     10        6          -0.000000232    0.000001058    0.000001186
     11        6          -0.000000222   -0.000000818   -0.000000105
     12        1           0.000000000   -0.000001163   -0.000001341
     13        1           0.000000002    0.000000514   -0.000002270
     14        1           0.000000708   -0.000000612   -0.000001443
     15        1           0.000000024   -0.000001043    0.000000123
     16        1          -0.000000025   -0.000001042    0.000000122
     17        1          -0.000000709   -0.000000612   -0.000001443
     18        1          -0.000000018    0.000002081    0.000000735
     19        1          -0.000000951    0.000000674   -0.000000238
     20        1           0.000000594    0.000000614   -0.000000847
     21        1           0.000000558   -0.000001087    0.000002099
     22        1          -0.000000922   -0.000001127    0.000000528
     23        1          -0.000000055    0.000000432    0.000001204
     24        1           0.000000950    0.000000675   -0.000000247
     25        1           0.000000013    0.000002084    0.000000737
     26        1          -0.000000600    0.000000617   -0.000000846
     27        1          -0.000000555   -0.000001089    0.000002095
     28        1           0.000000054    0.000000434    0.000001203
     29        1           0.000000922   -0.000001132    0.000000525
 -------------------------------------------------------------------
 Cartesian Forces:  Max     0.000002270 RMS     0.000000914
 Leave Link  716 at Wed Feb 28 21:11:55 2024, MaxMem=  2147483648 cpu:               2.1 elap:               0.1
 (Enter /software/gaussian-16RevA.03-el7-x86_64/g16/l103.exe)

 GradGradGradGradGradGradGradGradGradGradGradGradGradGradGradGradGradGrad
 Berny optimization.
 Using GEDIIS/GDIIS optimizer.
 FormGI is forming the generalized inverse of G from B-inverse, IUseBI=4.
 Internal  Forces:  Max     0.000001592 RMS     0.000000468
 Step   4 in ReCalcFC=50 IGetFC= 0 update Hessian.
 Search for a local minimum.
 Step number   4 out of a maximum of  174
 All quantities printed in internal units (Hartrees-Bohrs-Radians)
 RMS Force = .46757D-06 SwitMx=.10000D-02 MixMth= 2
 Mixed Optimization -- En-DIIS/RFO-DIIS
 Swapping is turned off.
 Update second derivatives using D2CorX and points    1    2    3    4
 DE= -2.70D-08 DEPred=-2.36D-08 R= 1.15D+00
 Trust test= 1.15D+00 RLast= 2.63D-03 DXMaxT set to 3.71D-01
 ITU=  0  1  1  0
     Eigenvalues ---    0.00221   0.00243   0.00352   0.00374   0.00492
     Eigenvalues ---    0.00638   0.00667   0.01374   0.02494   0.02636
     Eigenvalues ---    0.03900   0.03963   0.04026   0.04389   0.04481
     Eigenvalues ---    0.04539   0.04546   0.04624   0.04675   0.04684
     Eigenvalues ---    0.04781   0.04810   0.04911   0.05157   0.05784
     Eigenvalues ---    0.06126   0.06299   0.06873   0.07217   0.07306
     Eigenvalues ---    0.07709   0.08459   0.09042   0.10673   0.11404
     Eigenvalues ---    0.12320   0.12479   0.12767   0.12791   0.13448
     Eigenvalues ---    0.14423   0.14764   0.14822   0.15346   0.15537
     Eigenvalues ---    0.15782   0.15921   0.16231   0.17780   0.19002
     Eigenvalues ---    0.21940   0.22131   0.26150   0.26230   0.28622
     Eigenvalues ---    0.28860   0.29066   0.29751   0.30258   0.31830
     Eigenvalues ---    0.34594   0.34667   0.34796   0.35113   0.35253
     Eigenvalues ---    0.35372   0.35447   0.35784   0.35798   0.35877
     Eigenvalues ---    0.35895   0.36096   0.36099   0.36194   0.36346
     Eigenvalues ---    0.36361   0.36440   0.36801   0.36965   0.38023
     Eigenvalues ---    0.63614
 En-DIIS/RFO-DIIS/Sim-DIIS IScMMF=       -3 using points:     4    3    2
 RFO step:  Lambda=-2.67133326D-10.
 NNeg= 0 NGDIIS= 3 SimSw=  2.50D-01 Rises=F DC= -2.70D-08 SmlDif=  1.00D-05
 NRisDI= 0 DoIntr=F SqrtH=F CThrHd= 10.0 CDAdj=  3.0
 RMS Error=  0.4847149612D-04 NUsed= 3 OKEnD=F EnDIS=F
 InvSVX:  RCond= 1.05D-06 Info=           0 Equed=N FErr=  1.82D-15 BErr=  9.22D-17
 DidBck=F Rises=F RFO-DIIS coefs:    1.22968   -0.22921   -0.00046
 Iteration  1 RMS(Cart)=  0.00007625 RMS(Int)=  0.00000000
 Iteration  2 RMS(Cart)=  0.00000000 RMS(Int)=  0.00000000
 ITry= 1 IFail=0 DXMaxC= 5.82D-04 DCOld= 1.00D+10 DXMaxT= 3.71D-01 DXLimC= 3.00D+00 Rises=F
 Variable       Old X    -DE/DX   Delta X   Delta X   Delta X     New X
                                 (Linear)    (Quad)   (Total)
    R1        2.87787  -0.00000   0.00000   0.00000   0.00000   2.87787
    R2        2.87787  -0.00000   0.00000   0.00000   0.00000   2.87787
    R3        2.08424  -0.00000   0.00000  -0.00000  -0.00000   2.08424
    R4        2.08644  -0.00000  -0.00000  -0.00000  -0.00000   2.08643
    R5        2.90422  -0.00000   0.00000  -0.00000   0.00000   2.90422
    R6        2.08552  -0.00000   0.00000  -0.00000  -0.00000   2.08552
    R7        2.08905  -0.00000   0.00000  -0.00000  -0.00000   2.08905
    R8        2.81714   0.00000   0.00001  -0.00001   0.00000   2.81714
    R9        2.90656  -0.00000   0.00000   0.00000   0.00000   2.90656
   R10        2.89519  -0.00000   0.00000  -0.00000  -0.00000   2.89519
   R11        2.81714   0.00000   0.00001  -0.00001   0.00000   2.81714
   R12        2.39413   0.00000   0.00000  -0.00000  -0.00000   2.39413
   R13        2.90422  -0.00000   0.00000  -0.00000   0.00000   2.90422
   R14        2.90656  -0.00000   0.00000   0.00000   0.00000   2.90656
   R15        2.89519  -0.00000   0.00000  -0.00000  -0.00000   2.89519
   R16        2.08905  -0.00000   0.00000  -0.00000  -0.00000   2.08905
   R17        2.08552  -0.00000   0.00000  -0.00000  -0.00000   2.08552
   R18        2.08304  -0.00000   0.00000  -0.00000  -0.00000   2.08304
   R19        2.08490  -0.00000   0.00000  -0.00000  -0.00000   2.08490
   R20        2.08189  -0.00000  -0.00000  -0.00000  -0.00001   2.08189
   R21        2.08494  -0.00000  -0.00000  -0.00000  -0.00001   2.08493
   R22        2.08478  -0.00000  -0.00000  -0.00000  -0.00000   2.08478
   R23        2.07876  -0.00000   0.00000  -0.00001  -0.00000   2.07876
   R24        2.08490  -0.00000   0.00000  -0.00000  -0.00000   2.08490
   R25        2.08304  -0.00000   0.00000  -0.00000  -0.00000   2.08304
   R26        2.08189  -0.00000  -0.00000  -0.00000  -0.00001   2.08189
   R27        2.08494  -0.00000  -0.00000  -0.00000  -0.00001   2.08493
   R28        2.07876  -0.00000   0.00000  -0.00001  -0.00000   2.07876
   R29        2.08478  -0.00000  -0.00000  -0.00000  -0.00000   2.08478
    A1        1.90274   0.00000  -0.00000   0.00001   0.00001   1.90274
    A2        1.91606  -0.00000  -0.00000  -0.00000  -0.00000   1.91606
    A3        1.93663  -0.00000   0.00000  -0.00001  -0.00000   1.93663
    A4        1.91606  -0.00000  -0.00000  -0.00000  -0.00000   1.91606
    A5        1.93663  -0.00000   0.00000  -0.00001  -0.00000   1.93663
    A6        1.85537   0.00000  -0.00001   0.00000  -0.00000   1.85537
    A7        1.98229  -0.00000   0.00001  -0.00001  -0.00000   1.98229
    A8        1.93992  -0.00000   0.00000  -0.00000  -0.00000   1.93992
    A9        1.89320   0.00000  -0.00000   0.00001   0.00000   1.89320
   A10        1.88507   0.00000   0.00000   0.00000   0.00000   1.88508
   A11        1.89643  -0.00000  -0.00001   0.00000  -0.00001   1.89642
   A12        1.86283  -0.00000   0.00000   0.00000   0.00000   1.86284
   A13        1.92470   0.00000  -0.00001  -0.00000  -0.00002   1.92468
   A14        1.94439  -0.00000   0.00001  -0.00001   0.00000   1.94439
   A15        1.90571   0.00000   0.00000   0.00000   0.00000   1.90571
   A16        1.90414   0.00000   0.00000   0.00002   0.00002   1.90416
   A17        1.87582  -0.00000   0.00001  -0.00000   0.00000   1.87582
   A18        1.90774  -0.00000  -0.00001  -0.00000  -0.00001   1.90773
   A19        2.17075  -0.00000  -0.00002  -0.00001  -0.00003   2.17072
   A20        2.02727   0.00000   0.00002  -0.00001   0.00002   2.02729
   A21        2.02727   0.00000   0.00002  -0.00001   0.00002   2.02729
   A22        1.92470   0.00000  -0.00001  -0.00000  -0.00002   1.92468
   A23        1.90414   0.00000   0.00000   0.00002   0.00002   1.90416
   A24        1.87582  -0.00000   0.00001  -0.00000   0.00000   1.87582
   A25        1.94439  -0.00000   0.00001  -0.00001   0.00000   1.94439
   A26        1.90571   0.00000   0.00000   0.00000   0.00000   1.90572
   A27        1.90774  -0.00000  -0.00001  -0.00000  -0.00001   1.90773
   A28        1.98229  -0.00000   0.00001  -0.00001  -0.00000   1.98229
   A29        1.89320   0.00000  -0.00000   0.00001   0.00000   1.89320
   A30        1.93992  -0.00000   0.00000  -0.00000  -0.00000   1.93992
   A31        1.89643  -0.00000  -0.00001   0.00000  -0.00001   1.89642
   A32        1.88507   0.00000   0.00000   0.00000   0.00000   1.88508
   A33        1.86283  -0.00000   0.00000   0.00000   0.00000   1.86284
   A34        1.91391   0.00000  -0.00001   0.00001   0.00000   1.91391
   A35        1.91737  -0.00000  -0.00000  -0.00001  -0.00001   1.91736
   A36        1.96138  -0.00000   0.00001  -0.00000   0.00001   1.96139
   A37        1.89482   0.00000  -0.00000  -0.00000  -0.00000   1.89481
   A38        1.89194  -0.00000  -0.00000   0.00000  -0.00000   1.89194
   A39        1.88300   0.00000  -0.00000  -0.00000  -0.00000   1.88299
   A40        1.92952   0.00000   0.00001  -0.00000   0.00001   1.92952
   A41        1.90800  -0.00000  -0.00000  -0.00000  -0.00001   1.90799
   A42        1.94155  -0.00000   0.00000   0.00000   0.00000   1.94156
   A43        1.89217   0.00000   0.00000  -0.00000   0.00000   1.89217
   A44        1.89318   0.00000   0.00000  -0.00000   0.00000   1.89318
   A45        1.89848   0.00000  -0.00001   0.00001  -0.00000   1.89848
   A46        1.91737  -0.00000   0.00000  -0.00001  -0.00001   1.91736
   A47        1.91391   0.00000  -0.00001   0.00001   0.00000   1.91391
   A48        1.96138  -0.00000   0.00001  -0.00000   0.00001   1.96139
   A49        1.89482   0.00000  -0.00000  -0.00000  -0.00000   1.89481
   A50        1.88300   0.00000  -0.00000  -0.00000  -0.00000   1.88299
   A51        1.89194  -0.00000  -0.00000   0.00000  -0.00000   1.89194
   A52        1.92952   0.00000   0.00001  -0.00000   0.00001   1.92952
   A53        1.94155  -0.00000   0.00000   0.00000   0.00000   1.94156
   A54        1.90800  -0.00000  -0.00000  -0.00000  -0.00001   1.90799
   A55        1.89318   0.00000   0.00000  -0.00000   0.00000   1.89318
   A56        1.89217   0.00000   0.00000  -0.00000   0.00000   1.89217
   A57        1.89848   0.00000  -0.00001   0.00001  -0.00000   1.89848
    D1        1.02869  -0.00000  -0.00002  -0.00001  -0.00003   1.02867
    D2       -3.12454  -0.00000  -0.00001  -0.00001  -0.00002  -3.12456
    D3       -1.08170  -0.00000  -0.00001  -0.00001  -0.00002  -1.08172
    D4        3.12819   0.00000  -0.00002  -0.00000  -0.00002   3.12817
    D5       -1.02504   0.00000  -0.00001  -0.00001  -0.00002  -1.02506
    D6        1.01779   0.00000  -0.00001  -0.00001  -0.00002   1.01778
    D7       -1.10926   0.00000  -0.00003  -0.00000  -0.00003  -1.10929
    D8        1.02069  -0.00000  -0.00002  -0.00001  -0.00002   1.02067
    D9        3.06352  -0.00000  -0.00002  -0.00001  -0.00002   3.06350
   D10       -1.02869   0.00000   0.00002   0.00001   0.00003  -1.02867
   D11        1.08170   0.00000   0.00001   0.00001   0.00002   1.08172
   D12        3.12454   0.00000   0.00001   0.00001   0.00002   3.12456
   D13       -3.12819  -0.00000   0.00002   0.00000   0.00002  -3.12817
   D14       -1.01779  -0.00000   0.00001   0.00001   0.00002  -1.01778
   D15        1.02504  -0.00000   0.00001   0.00001   0.00002   1.02506
   D16        1.10926  -0.00000   0.00002   0.00000   0.00003   1.10929
   D17       -3.06352   0.00000   0.00001   0.00001   0.00002  -3.06350
   D18       -1.02069   0.00000   0.00002   0.00001   0.00002  -1.02067
   D19       -0.79390  -0.00000  -0.00003  -0.00002  -0.00005  -0.79395
   D20        1.32315  -0.00000  -0.00003  -0.00000  -0.00004   1.32312
   D21       -2.85124  -0.00000  -0.00004  -0.00001  -0.00005  -2.85128
   D22       -2.95401  -0.00000  -0.00004  -0.00001  -0.00005  -2.95407
   D23       -0.83696  -0.00000  -0.00004   0.00001  -0.00004  -0.83700
   D24        1.27184  -0.00000  -0.00005  -0.00000  -0.00005   1.27179
   D25        1.31468  -0.00000  -0.00004  -0.00001  -0.00005   1.31463
   D26       -2.85145   0.00000  -0.00004   0.00000  -0.00004  -2.85149
   D27       -0.74265  -0.00000  -0.00004  -0.00000  -0.00005  -0.74270
   D28        0.61426   0.00000   0.00009   0.00006   0.00014   0.61440
   D29       -2.90127   0.00000   0.00018  -0.00001   0.00017  -2.90111
   D30       -1.52658   0.00000   0.00008   0.00006   0.00014  -1.52645
   D31        1.24107   0.00000   0.00017  -0.00001   0.00016   1.24123
   D32        2.68991   0.00000   0.00009   0.00005   0.00014   2.69005
   D33       -0.82562   0.00000   0.00018  -0.00002   0.00016  -0.82545
   D34        1.18627  -0.00000   0.00008  -0.00002   0.00006   1.18633
   D35       -3.01578  -0.00000   0.00007  -0.00002   0.00005  -3.01572
   D36       -0.91028  -0.00000   0.00007  -0.00001   0.00006  -0.91022
   D37       -2.96792   0.00000   0.00007  -0.00002   0.00005  -2.96787
   D38       -0.88678   0.00000   0.00007  -0.00002   0.00005  -0.88674
   D39        1.21871   0.00000   0.00007  -0.00001   0.00006   1.21877
   D40       -0.92133  -0.00000   0.00008  -0.00001   0.00006  -0.92127
   D41        1.15980   0.00000   0.00007  -0.00002   0.00006   1.15986
   D42       -3.01789   0.00000   0.00007  -0.00001   0.00006  -3.01783
   D43        1.11528   0.00000   0.00002   0.00000   0.00002   1.11530
   D44       -3.06333   0.00000   0.00003  -0.00000   0.00002  -3.06331
   D45       -0.96638   0.00000   0.00001   0.00001   0.00002  -0.96636
   D46       -0.97253  -0.00000   0.00003   0.00001   0.00004  -0.97249
   D47        1.13205   0.00000   0.00004   0.00001   0.00004   1.13209
   D48       -3.05419  -0.00000   0.00002   0.00002   0.00003  -3.05415
   D49       -3.03689  -0.00000   0.00002  -0.00001   0.00002  -3.03687
   D50       -0.93232  -0.00000   0.00003  -0.00001   0.00002  -0.93229
   D51        1.16464  -0.00000   0.00002  -0.00000   0.00002   1.16465
   D52       -0.61426  -0.00000  -0.00009  -0.00006  -0.00014  -0.61440
   D53        1.52658  -0.00000  -0.00008  -0.00006  -0.00014   1.52645
   D54       -2.68991  -0.00000  -0.00009  -0.00005  -0.00014  -2.69005
   D55        2.90127  -0.00000  -0.00018   0.00001  -0.00017   2.90111
   D56       -1.24107  -0.00000  -0.00017   0.00001  -0.00016  -1.24123
   D57        0.82562  -0.00000  -0.00018   0.00002  -0.00016   0.82545
   D58        0.79390   0.00000   0.00004   0.00002   0.00005   0.79395
   D59       -1.31468   0.00000   0.00004   0.00001   0.00005  -1.31463
   D60        2.95401   0.00000   0.00004   0.00001   0.00005   2.95407
   D61       -1.32315   0.00000   0.00003   0.00000   0.00004  -1.32312
   D62        2.85145  -0.00000   0.00004  -0.00000   0.00004   2.85149
   D63        0.83696   0.00000   0.00004  -0.00001   0.00004   0.83700
   D64        2.85124   0.00000   0.00004   0.00001   0.00005   2.85129
   D65        0.74265   0.00000   0.00004   0.00000   0.00005   0.74270
   D66       -1.27183   0.00000   0.00005  -0.00000   0.00005  -1.27179
   D67        0.88678  -0.00000  -0.00006   0.00001  -0.00005   0.88674
   D68        2.96792  -0.00000  -0.00007   0.00001  -0.00005   2.96787
   D69       -1.21871  -0.00000  -0.00006   0.00001  -0.00006  -1.21877
   D70        3.01578   0.00000  -0.00007   0.00002  -0.00005   3.01572
   D71       -1.18627   0.00000  -0.00007   0.00002  -0.00006  -1.18633
   D72        0.91028   0.00000  -0.00007   0.00001  -0.00006   0.91022
   D73       -1.15980  -0.00000  -0.00007   0.00001  -0.00006  -1.15986
   D74        0.92133   0.00000  -0.00007   0.00001  -0.00006   0.92127
   D75        3.01789  -0.00000  -0.00007   0.00000  -0.00006   3.01783
   D76        0.97253   0.00000  -0.00002  -0.00001  -0.00004   0.97249
   D77        3.05418   0.00000  -0.00002  -0.00002  -0.00003   3.05415
   D78       -1.13205  -0.00000  -0.00003  -0.00001  -0.00004  -1.13209
   D79       -1.11528  -0.00000  -0.00001  -0.00000  -0.00002  -1.11530
   D80        0.96638  -0.00000  -0.00001  -0.00001  -0.00002   0.96636
   D81        3.06333  -0.00000  -0.00002  -0.00000  -0.00002   3.06331
   D82        3.03689   0.00000  -0.00002   0.00000  -0.00002   3.03687
   D83       -1.16464   0.00000  -0.00002  -0.00000  -0.00002  -1.16465
   D84        0.93232   0.00000  -0.00003   0.00001  -0.00002   0.93229
         Item               Value     Threshold  Converged?
 Maximum Force            0.000002     0.000450     YES
 RMS     Force            0.000000     0.000300     YES
 Maximum Displacement     0.000582     0.001800     YES
 RMS     Displacement     0.000076     0.001200     YES
 Predicted change in Energy=-9.410049D-10
 Optimization completed.
    -- Stationary point found.
                           ----------------------------
                           !   Optimized Parameters   !
                           ! (Angstroms and Degrees)  !
 --------------------------                            --------------------------
 ! Name  Definition              Value          Derivative Info.                !
 --------------------------------------------------------------------------------
 ! R1    R(1,2)                  1.5229         -DE/DX =    0.0                 !
 ! R2    R(1,6)                  1.5229         -DE/DX =    0.0                 !
 ! R3    R(1,12)                 1.1029         -DE/DX =    0.0                 !
 ! R4    R(1,13)                 1.1041         -DE/DX =    0.0                 !
 ! R5    R(2,3)                  1.5368         -DE/DX =    0.0                 !
 ! R6    R(2,14)                 1.1036         -DE/DX =    0.0                 !
 ! R7    R(2,15)                 1.1055         -DE/DX =    0.0                 !
 ! R8    R(3,4)                  1.4908         -DE/DX =    0.0                 !
 ! R9    R(3,10)                 1.5381         -DE/DX =    0.0                 !
 ! R10   R(3,11)                 1.5321         -DE/DX =    0.0                 !
 ! R11   R(4,5)                  1.4908         -DE/DX =    0.0                 !
 ! R12   R(4,9)                  1.2669         -DE/DX =    0.0                 !
 ! R13   R(5,6)                  1.5368         -DE/DX =    0.0                 !
 ! R14   R(5,7)                  1.5381         -DE/DX =    0.0                 !
 ! R15   R(5,8)                  1.5321         -DE/DX =    0.0                 !
 ! R16   R(6,16)                 1.1055         -DE/DX =    0.0                 !
 ! R17   R(6,17)                 1.1036         -DE/DX =    0.0                 !
 ! R18   R(7,18)                 1.1023         -DE/DX =    0.0                 !
 ! R19   R(7,19)                 1.1033         -DE/DX =    0.0                 !
 ! R20   R(7,20)                 1.1017         -DE/DX =    0.0                 !
 ! R21   R(8,21)                 1.1033         -DE/DX =    0.0                 !
 ! R22   R(8,22)                 1.1032         -DE/DX =    0.0                 !
 ! R23   R(8,23)                 1.1            -DE/DX =    0.0                 !
 ! R24   R(10,24)                1.1033         -DE/DX =    0.0                 !
 ! R25   R(10,25)                1.1023         -DE/DX =    0.0                 !
 ! R26   R(10,26)                1.1017         -DE/DX =    0.0                 !
 ! R27   R(11,27)                1.1033         -DE/DX =    0.0                 !
 ! R28   R(11,28)                1.1            -DE/DX =    0.0                 !
 ! R29   R(11,29)                1.1032         -DE/DX =    0.0                 !
 ! A1    A(2,1,6)              109.0187         -DE/DX =    0.0                 !
 ! A2    A(2,1,12)             109.7821         -DE/DX =    0.0                 !
 ! A3    A(2,1,13)             110.9607         -DE/DX =    0.0                 !
 ! A4    A(6,1,12)             109.7821         -DE/DX =    0.0                 !
 ! A5    A(6,1,13)             110.9607         -DE/DX =    0.0                 !
 ! A6    A(12,1,13)            106.305          -DE/DX =    0.0                 !
 ! A7    A(1,2,3)              113.577          -DE/DX =    0.0                 !
 ! A8    A(1,2,14)             111.1494         -DE/DX =    0.0                 !
 ! A9    A(1,2,15)             108.4724         -DE/DX =    0.0                 !
 ! A10   A(3,2,14)             108.0067         -DE/DX =    0.0                 !
 ! A11   A(3,2,15)             108.6574         -DE/DX =    0.0                 !
 ! A12   A(14,2,15)            106.7325         -DE/DX =    0.0                 !
 ! A13   A(2,3,4)              110.2771         -DE/DX =    0.0                 !
 ! A14   A(2,3,10)             111.4053         -DE/DX =    0.0                 !
 ! A15   A(2,3,11)             109.1894         -DE/DX =    0.0                 !
 ! A16   A(4,3,10)             109.0992         -DE/DX =    0.0                 !
 ! A17   A(4,3,11)             107.4764         -DE/DX =    0.0                 !
 ! A18   A(10,3,11)            109.3055         -DE/DX =    0.0                 !
 ! A19   A(3,4,5)              124.3748         -DE/DX =    0.0                 !
 ! A20   A(3,4,9)              116.1541         -DE/DX =    0.0                 !
 ! A21   A(5,4,9)              116.1541         -DE/DX =    0.0                 !
 ! A22   A(4,5,6)              110.2771         -DE/DX =    0.0                 !
 ! A23   A(4,5,7)              109.0992         -DE/DX =    0.0                 !
 ! A24   A(4,5,8)              107.4764         -DE/DX =    0.0                 !
 ! A25   A(6,5,7)              111.4053         -DE/DX =    0.0                 !
 ! A26   A(6,5,8)              109.1894         -DE/DX =    0.0                 !
 ! A27   A(7,5,8)              109.3055         -DE/DX =    0.0                 !
 ! A28   A(1,6,5)              113.5771         -DE/DX =    0.0                 !
 ! A29   A(1,6,16)             108.4725         -DE/DX =    0.0                 !
 ! A30   A(1,6,17)             111.1494         -DE/DX =    0.0                 !
 ! A31   A(5,6,16)             108.6574         -DE/DX =    0.0                 !
 ! A32   A(5,6,17)             108.0067         -DE/DX =    0.0                 !
 ! A33   A(16,6,17)            106.7325         -DE/DX =    0.0                 !
 ! A34   A(5,7,18)             109.6587         -DE/DX =    0.0                 !
 ! A35   A(5,7,19)             109.857          -DE/DX =    0.0                 !
 ! A36   A(5,7,20)             112.3791         -DE/DX =    0.0                 !
 ! A37   A(18,7,19)            108.5649         -DE/DX =    0.0                 !
 ! A38   A(18,7,20)            108.4002         -DE/DX =    0.0                 !
 ! A39   A(19,7,20)            107.8878         -DE/DX =    0.0                 !
 ! A40   A(5,8,21)             110.5531         -DE/DX =    0.0                 !
 ! A41   A(5,8,22)             109.3204         -DE/DX =    0.0                 !
 ! A42   A(5,8,23)             111.2429         -DE/DX =    0.0                 !
 ! A43   A(21,8,22)            108.4134         -DE/DX =    0.0                 !
 ! A44   A(21,8,23)            108.4713         -DE/DX =    0.0                 !
 ! A45   A(22,8,23)            108.7751         -DE/DX =    0.0                 !
 ! A46   A(3,10,24)            109.8571         -DE/DX =    0.0                 !
 ! A47   A(3,10,25)            109.6587         -DE/DX =    0.0                 !
 ! A48   A(3,10,26)            112.3791         -DE/DX =    0.0                 !
 ! A49   A(24,10,25)           108.5649         -DE/DX =    0.0                 !
 ! A50   A(24,10,26)           107.8878         -DE/DX =    0.0                 !
 ! A51   A(25,10,26)           108.4002         -DE/DX =    0.0                 !
 ! A52   A(3,11,27)            110.5531         -DE/DX =    0.0                 !
 ! A53   A(3,11,28)            111.2429         -DE/DX =    0.0                 !
 ! A54   A(3,11,29)            109.3204         -DE/DX =    0.0                 !
 ! A55   A(27,11,28)           108.4713         -DE/DX =    0.0                 !
 ! A56   A(27,11,29)           108.4135         -DE/DX =    0.0                 !
 ! A57   A(28,11,29)           108.7751         -DE/DX =    0.0                 !
 ! D1    D(6,1,2,3)             58.9398         -DE/DX =    0.0                 !
 ! D2    D(6,1,2,14)          -179.0228         -DE/DX =    0.0                 !
 ! D3    D(6,1,2,15)           -61.9771         -DE/DX =    0.0                 !
 ! D4    D(12,1,2,3)           179.2321         -DE/DX =    0.0                 !
 ! D5    D(12,1,2,14)          -58.7305         -DE/DX =    0.0                 !
 ! D6    D(12,1,2,15)           58.3152         -DE/DX =    0.0                 !
 ! D7    D(13,1,2,3)           -63.5561         -DE/DX =    0.0                 !
 ! D8    D(13,1,2,14)           58.4813         -DE/DX =    0.0                 !
 ! D9    D(13,1,2,15)          175.527          -DE/DX =    0.0                 !
 ! D10   D(2,1,6,5)            -58.9398         -DE/DX =    0.0                 !
 ! D11   D(2,1,6,16)            61.9771         -DE/DX =    0.0                 !
 ! D12   D(2,1,6,17)           179.0228         -DE/DX =    0.0                 !
 ! D13   D(12,1,6,5)          -179.2322         -DE/DX =    0.0                 !
 ! D14   D(12,1,6,16)          -58.3152         -DE/DX =    0.0                 !
 ! D15   D(12,1,6,17)           58.7305         -DE/DX =    0.0                 !
 ! D16   D(13,1,6,5)            63.556          -DE/DX =    0.0                 !
 ! D17   D(13,1,6,16)         -175.527          -DE/DX =    0.0                 !
 ! D18   D(13,1,6,17)          -58.4813         -DE/DX =    0.0                 !
 ! D19   D(1,2,3,4)            -45.4873         -DE/DX =    0.0                 !
 ! D20   D(1,2,3,10)            75.8111         -DE/DX =    0.0                 !
 ! D21   D(1,2,3,11)          -163.3639         -DE/DX =    0.0                 !
 ! D22   D(14,2,3,4)          -169.2525         -DE/DX =    0.0                 !
 ! D23   D(14,2,3,10)          -47.9542         -DE/DX =    0.0                 !
 ! D24   D(14,2,3,11)           72.8708         -DE/DX =    0.0                 !
 ! D25   D(15,2,3,4)            75.3258         -DE/DX =    0.0                 !
 ! D26   D(15,2,3,10)         -163.3759         -DE/DX =    0.0                 !
 ! D27   D(15,2,3,11)          -42.5509         -DE/DX =    0.0                 !
 ! D28   D(2,3,4,5)             35.1943         -DE/DX =    0.0                 !
 ! D29   D(2,3,4,9)           -166.2307         -DE/DX =    0.0                 !
 ! D30   D(10,3,4,5)           -87.4669         -DE/DX =    0.0                 !
 ! D31   D(10,3,4,9)            71.1081         -DE/DX =    0.0                 !
 ! D32   D(11,3,4,5)           154.1207         -DE/DX =    0.0                 !
 ! D33   D(11,3,4,9)           -47.3043         -DE/DX =    0.0                 !
 ! D34   D(2,3,10,24)           67.9684         -DE/DX =    0.0                 !
 ! D35   D(2,3,10,25)         -172.7913         -DE/DX =    0.0                 !
 ! D36   D(2,3,10,26)          -52.1554         -DE/DX =    0.0                 !
 ! D37   D(4,3,10,24)         -170.0492         -DE/DX =    0.0                 !
 ! D38   D(4,3,10,25)          -50.8089         -DE/DX =    0.0                 !
 ! D39   D(4,3,10,26)           69.827          -DE/DX =    0.0                 !
 ! D40   D(11,3,10,24)         -52.7885         -DE/DX =    0.0                 !
 ! D41   D(11,3,10,25)          66.4518         -DE/DX =    0.0                 !
 ! D42   D(11,3,10,26)        -172.9124         -DE/DX =    0.0                 !
 ! D43   D(2,3,11,27)           63.9008         -DE/DX =    0.0                 !
 ! D44   D(2,3,11,28)         -175.5161         -DE/DX =    0.0                 !
 ! D45   D(2,3,11,29)          -55.3695         -DE/DX =    0.0                 !
 ! D46   D(4,3,11,27)          -55.7217         -DE/DX =    0.0                 !
 ! D47   D(4,3,11,28)           64.8614         -DE/DX =    0.0                 !
 ! D48   D(4,3,11,29)         -174.9919         -DE/DX =    0.0                 !
 ! D49   D(10,3,11,27)        -174.0009         -DE/DX =    0.0                 !
 ! D50   D(10,3,11,28)         -53.4178         -DE/DX =    0.0                 !
 ! D51   D(10,3,11,29)          66.7288         -DE/DX =    0.0                 !
 ! D52   D(3,4,5,6)            -35.1943         -DE/DX =    0.0                 !
 ! D53   D(3,4,5,7)             87.4668         -DE/DX =    0.0                 !
 ! D54   D(3,4,5,8)           -154.1208         -DE/DX =    0.0                 !
 ! D55   D(9,4,5,6)            166.2307         -DE/DX =    0.0                 !
 ! D56   D(9,4,5,7)            -71.1081         -DE/DX =    0.0                 !
 ! D57   D(9,4,5,8)             47.3043         -DE/DX =    0.0                 !
 ! D58   D(4,5,6,1)             45.4873         -DE/DX =    0.0                 !
 ! D59   D(4,5,6,16)           -75.3257         -DE/DX =    0.0                 !
 ! D60   D(4,5,6,17)           169.2526         -DE/DX =    0.0                 !
 ! D61   D(7,5,6,1)            -75.8111         -DE/DX =    0.0                 !
 ! D62   D(7,5,6,16)           163.3759         -DE/DX =    0.0                 !
 ! D63   D(7,5,6,17)            47.9542         -DE/DX =    0.0                 !
 ! D64   D(8,5,6,1)            163.364          -DE/DX =    0.0                 !
 ! D65   D(8,5,6,16)            42.5509         -DE/DX =    0.0                 !
 ! D66   D(8,5,6,17)           -72.8708         -DE/DX =    0.0                 !
 ! D67   D(4,5,7,18)            50.8089         -DE/DX =    0.0                 !
 ! D68   D(4,5,7,19)           170.0492         -DE/DX =    0.0                 !
 ! D69   D(4,5,7,20)           -69.827          -DE/DX =    0.0                 !
 ! D70   D(6,5,7,18)           172.7913         -DE/DX =    0.0                 !
 ! D71   D(6,5,7,19)           -67.9684         -DE/DX =    0.0                 !
 ! D72   D(6,5,7,20)            52.1554         -DE/DX =    0.0                 !
 ! D73   D(8,5,7,18)           -66.4518         -DE/DX =    0.0                 !
 ! D74   D(8,5,7,19)            52.7885         -DE/DX =    0.0                 !
 ! D75   D(8,5,7,20)           172.9123         -DE/DX =    0.0                 !
 ! D76   D(4,5,8,21)            55.7216         -DE/DX =    0.0                 !
 ! D77   D(4,5,8,22)           174.9919         -DE/DX =    0.0                 !
 ! D78   D(4,5,8,23)           -64.8615         -DE/DX =    0.0                 !
 ! D79   D(6,5,8,21)           -63.9008         -DE/DX =    0.0                 !
 ! D80   D(6,5,8,22)            55.3695         -DE/DX =    0.0                 !
 ! D81   D(6,5,8,23)           175.5161         -DE/DX =    0.0                 !
 ! D82   D(7,5,8,21)           174.0009         -DE/DX =    0.0                 !
 ! D83   D(7,5,8,22)           -66.7288         -DE/DX =    0.0                 !
 ! D84   D(7,5,8,23)            53.4178         -DE/DX =    0.0                 !
 --------------------------------------------------------------------------------
 Lowest energy point so far.  Saving SCF results.
 Largest change from initial coordinates is atom   22       0.032 Angstoms.
 Step   4 in ReCalcFC=50 IGetFC= 0 compute gradient.
 GradGradGradGradGradGradGradGradGradGradGradGradGradGradGradGradGradGrad

 Leave Link  103 at Wed Feb 28 21:11:55 2024, MaxMem=  2147483648 cpu:               1.3 elap:               0.1
 (Enter /software/gaussian-16RevA.03-el7-x86_64/g16/l202.exe)
                          Input orientation:                          
 ---------------------------------------------------------------------
 Center     Atomic      Atomic             Coordinates (Angstroms)
 Number     Number       Type             X           Y           Z
 ---------------------------------------------------------------------
      1          6           0        0.000057    2.119337   -0.001270
      2          6           0       -1.239913    1.385366   -0.494216
      3          6           0       -1.318536   -0.074820   -0.021385
      4          7           0        0.000006   -0.747232   -0.199421
      5          6           0        1.318567   -0.074870   -0.021343
      6          6           0        1.240014    1.385319   -0.494176
      7          6           0        1.733702   -0.164659    1.456937
      8          6           0        2.338975   -0.828250   -0.880656
      9          8           0       -0.000020   -2.010571   -0.104250
     10          6           0       -1.733720   -0.164594    1.456882
     11          6           0       -2.338944   -0.828162   -0.880731
     12          1           0        0.000082    3.152707   -0.386760
     13          1           0        0.000041    2.199288    1.099926
     14          1           0       -2.161592    1.898875   -0.170531
     15          1           0       -1.239087    1.399599   -1.599601
     16          1           0        1.239224    1.399551   -1.599562
     17          1           0        2.161703    1.898793   -0.170463
     18          1           0        1.656119   -1.208964    1.801128
     19          1           0        2.779580    0.166756    1.573278
     20          1           0        1.105208    0.463683    2.108016
     21          1           0        2.005609   -0.868743   -1.931609
     22          1           0        3.307794   -0.301926   -0.842414
     23          1           0        2.480888   -1.857787   -0.520122
     24          1           0       -2.779590    0.166860    1.573191
     25          1           0       -1.656188   -1.208902    1.801075
     26          1           0       -1.105223    0.463724    2.107980
     27          1           0       -2.005546   -0.868666   -1.931673
     28          1           0       -2.480907   -1.857694   -0.520202
     29          1           0       -3.307745   -0.301801   -0.842520
 ---------------------------------------------------------------------
                    Distance matrix (angstroms):
                    1          2          3          4          5
     1  C    0.000000
     2  C    1.522903   0.000000
     3  C    2.559964   1.536845   0.000000
     4  N    2.873409   2.484406   1.490767   0.000000
     5  C    2.559964   2.983574   2.637103   1.490767   0.000000
     6  C    1.522903   2.479927   2.983574   2.484406   1.536845
     7  C    3.216912   3.879685   3.392589   2.467511   1.538086
     8  C    3.864211   4.225857   3.831891   2.437503   1.532068
     9  O    4.131191   3.636178   2.343604   1.266918   2.343605
    10  C    3.216913   2.540276   1.538086   2.467511   3.392589
    11  C    3.864211   2.501393   1.532068   2.437503   3.831890
    12  H    1.102931   2.161627   3.505593   3.904436   3.505593
    13  H    1.104094   2.177439   2.857892   3.220292   2.857892
    14  H    2.179445   1.103611   2.151386   3.416902   4.003678
    15  H    2.146664   1.105477   2.161247   2.846883   3.347619
    16  H    2.146664   2.714427   3.347619   2.846882   2.161247
    17  H    2.179445   3.455346   4.003678   3.416902   2.151386
    18  H    4.131436   4.515103   3.668298   2.637822   2.172904
    19  H    3.743998   4.681438   4.404073   3.421092   2.176180
    20  H    2.900282   3.622250   3.270912   2.830556   2.206746
    21  H    4.083757   4.204821   3.915253   2.652863   2.179765
    22  H    4.184634   4.863109   4.704104   3.399000   2.163963
    23  H    4.716063   4.935896   4.226504   2.736962   2.185993
    24  H    3.743999   2.851233   2.176180   3.421092   4.404073
    25  H    4.131436   3.488821   2.172904   2.637821   3.668297
    26  H    2.900282   2.763872   2.206746   2.830556   3.270911
    27  H    4.083756   2.780852   2.179765   2.652863   3.915253
    28  H    4.716062   3.472489   2.185993   2.736961   4.226503
    29  H    4.184634   2.691427   2.163963   3.399000   4.704104
                    6          7          8          9         10
     6  C    0.000000
     7  C    2.540276   0.000000
     8  C    2.501394   2.504206   0.000000
     9  O    3.636178   2.974976   2.733419   0.000000
    10  C    3.879685   3.467422   4.742506   2.974976   0.000000
    11  C    4.225856   4.742507   4.677919   2.733419   2.504206
    12  H    2.161627   4.172478   4.643530   5.171001   4.172478
    13  H    2.177439   2.953181   4.308051   4.378693   2.953182
    14  H    3.455345   4.698951   5.310046   4.467724   2.662602
    15  H    2.714427   4.541674   4.275830   3.924362   3.468926
    16  H    1.105477   3.468926   2.586383   3.924362   4.541674
    17  H    1.103611   2.662602   2.823573   4.467724   4.698951
    18  H    3.488821   1.102298   2.793421   2.648742   3.563738
    19  H    2.851233   1.103283   2.684393   3.909095   4.526944
    20  H    2.763872   1.101690   3.481872   3.498225   2.979634
    21  H    2.780853   3.471586   1.103302   2.943732   5.095123
    22  H    2.691427   2.789915   1.103219   3.795522   5.542787
    23  H    3.472489   2.708087   1.100032   2.520158   4.953622
    24  H    4.681438   4.526944   5.762925   3.909095   1.103283
    25  H    4.515102   3.563738   4.826790   2.648741   1.102298
    26  H    3.622250   2.979634   4.739583   3.498224   1.101690
    27  H    4.204820   5.095123   4.470026   2.943732   3.471586
    28  H    4.935896   4.953622   4.941755   2.520157   2.708087
    29  H    4.863109   5.542787   5.671335   3.795521   2.789915
                   11         12         13         14         15
    11  C    0.000000
    12  H    4.643530   0.000000
    13  H    4.308051   1.766138   0.000000
    14  H    2.823573   2.508324   2.525266   0.000000
    15  H    2.586383   2.465748   3.076099   1.772719   0.000000
    16  H    4.275829   2.465748   3.076100   3.722500   2.478312
    17  H    5.310046   2.508324   2.525266   4.323295   3.722500
    18  H    4.826791   5.153008   3.853629   5.302926   5.172213
    19  H    5.762925   4.525844   3.475786   5.518722   5.266570
    20  H    4.739583   3.830935   2.291280   4.233619   4.485319
    21  H    4.470026   4.751921   4.756608   5.303458   3.972865
    22  H    5.671335   4.804484   4.579300   5.933729   4.913517
    23  H    4.941756   5.592606   5.023845   5.982253   5.061033
    24  H    2.684393   4.525845   3.475786   2.534238   3.736228
    25  H    2.793421   5.153008   3.853630   3.714962   4.306141
    26  H    3.481872   3.830935   2.291280   2.892609   3.826218
    27  H    1.103302   4.751920   4.756607   3.284091   2.417179
    28  H    1.100032   5.592605   5.023845   3.786296   3.649270
    29  H    1.103219   4.804484   4.579300   2.570644   2.783393
                   16         17         18         19         20
    16  H    0.000000
    17  H    1.772719   0.000000
    18  H    4.306141   3.714961   0.000000
    19  H    3.736228   2.534237   1.790722   0.000000
    20  H    3.826218   2.892609   1.787577   1.782591   0.000000
    21  H    2.417180   3.284092   3.764468   3.735709   4.347947
    22  H    2.783393   2.570643   3.246393   2.516792   3.760662
    23  H    3.649271   3.786296   2.547434   2.927510   3.766806
    24  H    5.266570   5.518722   4.649770   5.559170   3.932658
    25  H    5.172212   5.302926   3.312307   4.649770   3.243002
    26  H    4.485318   4.233619   3.243001   3.932657   2.210431
    27  H    3.972864   5.303457   5.239981   6.021148   5.269823
    28  H    5.061032   5.982252   4.787945   6.012802   5.015630
    29  H    4.913517   5.933729   5.696645   6.565908   5.363374
                   21         22         23         24         25
    21  H    0.000000
    22  H    1.789780   0.000000
    23  H    1.787846   1.791187   0.000000
    24  H    6.021148   6.565908   6.012802   0.000000
    25  H    5.239980   5.696645   4.787944   1.790722   0.000000
    26  H    5.269822   5.363373   5.015629   1.782591   1.787577
    27  H    4.011155   5.453372   4.806135   3.735710   3.764468
    28  H    4.806134   6.002774   4.961795   2.927511   2.547434
    29  H    5.453372   6.615539   6.002775   2.516793   3.246393
                   26         27         28         29
    26  H    0.000000
    27  H    4.347947   0.000000
    28  H    3.766806   1.787846   0.000000
    29  H    3.760662   1.789780   1.791187   0.000000
 Symmetry turned off by external request.
 Stoichiometry    C9H18NO(2)
 Framework group  C1[X(C9H18NO)]
 Deg. of freedom    81
 Full point group                 C1      NOp   1
 Rotational constants (GHZ):           1.4844273           1.0675155           0.8588290
 Leave Link  202 at Wed Feb 28 21:11:55 2024, MaxMem=  2147483648 cpu:               0.8 elap:               0.1
 (Enter /software/gaussian-16RevA.03-el7-x86_64/g16/l601.exe)
 Copying SCF densities to generalized density rwf, IOpCl= 1 IROHF=0.

 **********************************************************************

            Population analysis using the SCF density.

 **********************************************************************

 Alpha  occ. eigenvalues --  -19.24924 -14.52703 -10.34295 -10.34289 -10.29343
 Alpha  occ. eigenvalues --  -10.29341 -10.29279 -10.28435 -10.28430 -10.28070
 Alpha  occ. eigenvalues --  -10.28070  -1.19314  -0.96377  -0.91531  -0.86109
 Alpha  occ. eigenvalues --   -0.80893  -0.78566  -0.77516  -0.77094  -0.69088
 Alpha  occ. eigenvalues --   -0.68981  -0.60561  -0.57774  -0.57314  -0.56571
 Alpha  occ. eigenvalues --   -0.55105  -0.53088  -0.51362  -0.51355  -0.49320
 Alpha  occ. eigenvalues --   -0.48915  -0.47381  -0.47357  -0.45801  -0.45454
 Alpha  occ. eigenvalues --   -0.45014  -0.43783  -0.43397  -0.41673  -0.40936
 Alpha  occ. eigenvalues --   -0.40392  -0.39334  -0.33875  -0.27237
 Alpha virt. eigenvalues --    0.12632   0.15432   0.15684   0.16247   0.16706
 Alpha virt. eigenvalues --    0.19154   0.19750   0.21291   0.21626   0.22135
 Alpha virt. eigenvalues --    0.22327   0.22552   0.23441   0.24555   0.25157
 Alpha virt. eigenvalues --    0.25613   0.26163   0.26929   0.27567   0.28272
 Alpha virt. eigenvalues --    0.28482   0.29434   0.30716   0.32216   0.33663
 Alpha virt. eigenvalues --    0.34438   0.35362   0.37331   0.40111   0.47753
 Alpha virt. eigenvalues --    0.48580   0.48952   0.50379   0.52070   0.54082
 Alpha virt. eigenvalues --    0.56356   0.56890   0.61887   0.62028   0.64698
 Alpha virt. eigenvalues --    0.65440   0.67807   0.68271   0.70023   0.71624
 Alpha virt. eigenvalues --    0.72400   0.73420   0.73796   0.74456   0.74902
 Alpha virt. eigenvalues --    0.77217   0.77424   0.77591   0.77838   0.78527
 Alpha virt. eigenvalues --    0.80124   0.80334   0.80510   0.80993   0.81125
 Alpha virt. eigenvalues --    0.81258   0.81555   0.82727   0.84044   0.84342
 Alpha virt. eigenvalues --    0.84561   0.85101   0.85545   0.86381   0.86472
 Alpha virt. eigenvalues --    0.89023   0.91039   0.94769   0.98335   0.98388
 Alpha virt. eigenvalues --    1.04534   1.05282   1.07169   1.11145   1.15383
 Alpha virt. eigenvalues --    1.17009   1.19520   1.23711   1.23850   1.26351
 Alpha virt. eigenvalues --    1.28178   1.32786   1.36023   1.36190   1.46060
 Alpha virt. eigenvalues --    1.51291   1.51539   1.58983   1.61312   1.72077
 Alpha virt. eigenvalues --    1.80990   1.84228   1.84675   1.86924   1.87798
 Alpha virt. eigenvalues --    1.90708   1.91975   1.93171   1.95127   1.97015
 Alpha virt. eigenvalues --    1.99293   1.99304   2.01613   2.06177   2.06589
 Alpha virt. eigenvalues --    2.10077   2.12144   2.13860   2.16266   2.17812
 Alpha virt. eigenvalues --    2.21599   2.23048   2.24672   2.25744   2.26232
 Alpha virt. eigenvalues --    2.27824   2.27959   2.35649   2.35877   2.39436
 Alpha virt. eigenvalues --    2.39711   2.43805   2.44478   2.47294   2.51102
 Alpha virt. eigenvalues --    2.54561   2.61887   2.67458   2.71075   2.73591
 Alpha virt. eigenvalues --    2.75931   2.76186   2.81037   2.81060   2.81636
 Alpha virt. eigenvalues --    2.86217   2.97125   3.08452   3.24574   3.43773
 Alpha virt. eigenvalues --    3.83539
  Beta  occ. eigenvalues --  -19.23685 -14.51713 -10.34335 -10.34328 -10.29337
  Beta  occ. eigenvalues --  -10.29335 -10.29281 -10.28382 -10.28378 -10.28051
  Beta  occ. eigenvalues --  -10.28050  -1.16760  -0.95481  -0.91400  -0.85589
  Beta  occ. eigenvalues --   -0.79452  -0.78360  -0.77404  -0.77067  -0.68846
  Beta  occ. eigenvalues --   -0.68568  -0.59867  -0.57100  -0.57020  -0.55088
  Beta  occ. eigenvalues --   -0.53282  -0.53011  -0.51297  -0.50900  -0.48668
  Beta  occ. eigenvalues --   -0.48495  -0.47266  -0.47006  -0.45217  -0.44961
  Beta  occ. eigenvalues --   -0.44815  -0.43356  -0.41856  -0.41515  -0.40809
  Beta  occ. eigenvalues --   -0.39266  -0.38318  -0.32515
  Beta virt. eigenvalues --    0.02724   0.12681   0.15442   0.15706   0.16486
  Beta virt. eigenvalues --    0.16745   0.19231   0.19837   0.21533   0.21632
  Beta virt. eigenvalues --    0.22156   0.22454   0.22574   0.23679   0.24618
  Beta virt. eigenvalues --    0.25180   0.25770   0.26235   0.27085   0.27844
  Beta virt. eigenvalues --    0.28301   0.28507   0.29935   0.30906   0.32707
  Beta virt. eigenvalues --    0.33686   0.34632   0.35494   0.37680   0.41399
  Beta virt. eigenvalues --    0.47910   0.48592   0.49069   0.50453   0.52140
  Beta virt. eigenvalues --    0.54655   0.56812   0.57029   0.62147   0.62204
  Beta virt. eigenvalues --    0.64934   0.65706   0.67853   0.68449   0.70178
  Beta virt. eigenvalues --    0.71678   0.72413   0.73456   0.73842   0.74626
  Beta virt. eigenvalues --    0.74957   0.77247   0.77515   0.77592   0.77916
  Beta virt. eigenvalues --    0.78603   0.80203   0.80362   0.80649   0.81028
  Beta virt. eigenvalues --    0.81211   0.81300   0.81677   0.82834   0.84075
  Beta virt. eigenvalues --    0.84442   0.84610   0.85207   0.85606   0.86445
  Beta virt. eigenvalues --    0.86517   0.89073   0.91131   0.94802   0.98403
  Beta virt. eigenvalues --    0.98869   1.05080   1.06218   1.08402   1.11419
  Beta virt. eigenvalues --    1.15431   1.18720   1.19719   1.24081   1.25284
  Beta virt. eigenvalues --    1.27065   1.28445   1.33446   1.36302   1.36811
  Beta virt. eigenvalues --    1.46223   1.51641   1.52080   1.59662   1.61618
  Beta virt. eigenvalues --    1.72310   1.81035   1.84664   1.84841   1.87891
  Beta virt. eigenvalues --    1.88107   1.90962   1.92481   1.93327   1.95586
  Beta virt. eigenvalues --    1.97241   1.99326   1.99466   2.01713   2.06260
  Beta virt. eigenvalues --    2.06699   2.10229   2.12203   2.13917   2.16707
  Beta virt. eigenvalues --    2.17896   2.22015   2.23200   2.24747   2.25810
  Beta virt. eigenvalues --    2.26874   2.28081   2.28179   2.36031   2.36407
  Beta virt. eigenvalues --    2.39602   2.39941   2.44270   2.44979   2.47690
  Beta virt. eigenvalues --    2.51858   2.54629   2.62587   2.68406   2.71941
  Beta virt. eigenvalues --    2.74416   2.76758   2.78706   2.81357   2.83053
  Beta virt. eigenvalues --    2.83466   2.86267   2.98490   3.10204   3.28627
  Beta virt. eigenvalues --    3.44684   3.85381
          Condensed to atoms (all electrons):
               1          2          3          4          5          6
     1  C    4.807063   0.403552  -0.047541  -0.009126  -0.047541   0.403552
     2  C    0.403552   4.990139   0.328007  -0.041019   0.004236  -0.068234
     3  C   -0.047541   0.328007   5.109318   0.239221  -0.104179   0.004236
     4  N   -0.009126  -0.041019   0.239221   6.713002   0.239221  -0.041019
     5  C   -0.047541   0.004236  -0.104179   0.239221   5.109318   0.328007
     6  C    0.403552  -0.068234   0.004236  -0.041019   0.328007   4.990139
     7  C   -0.011240   0.001158  -0.005816  -0.059691   0.405025  -0.077200
     8  C    0.010811  -0.002262   0.009723  -0.060764   0.393696  -0.064887
     9  O   -0.000143   0.006465  -0.069037   0.214512  -0.069037   0.006465
    10  C   -0.011240  -0.077200   0.405025  -0.059691  -0.005816   0.001158
    11  C    0.010811  -0.064887   0.393696  -0.060764   0.009723  -0.002262
    12  H    0.367076  -0.015612   0.007205   0.000024   0.007205  -0.015612
    13  H    0.375974  -0.026896  -0.006131  -0.002453  -0.006131  -0.026896
    14  H   -0.015545   0.360350  -0.015640   0.004708  -0.000255   0.008156
    15  H   -0.027571   0.358335  -0.014575  -0.002235  -0.004110  -0.000357
    16  H   -0.027571  -0.000357  -0.004110  -0.002235  -0.014575   0.358335
    17  H   -0.015545   0.008156  -0.000255   0.004708  -0.015640   0.360350
    18  H   -0.000422  -0.000102   0.000313  -0.008847  -0.016935   0.009720
    19  H   -0.000024   0.000002  -0.000069   0.005449  -0.020835  -0.003572
    20  H    0.004489  -0.001183   0.000913  -0.002604  -0.015788  -0.007480
    21  H   -0.000335   0.000133  -0.000058   0.001570  -0.012803  -0.008394
    22  H    0.000323  -0.000038  -0.000014   0.005492  -0.026230  -0.003616
    23  H   -0.000339  -0.000118   0.000709  -0.008597  -0.014035   0.008622
    24  H   -0.000024  -0.003572  -0.020835   0.005449  -0.000069   0.000002
    25  H   -0.000422   0.009720  -0.016935  -0.008847   0.000313  -0.000102
    26  H    0.004489  -0.007480  -0.015788  -0.002604   0.000913  -0.001183
    27  H   -0.000335  -0.008394  -0.012803   0.001570  -0.000058   0.000133
    28  H   -0.000339   0.008622  -0.014035  -0.008597   0.000709  -0.000118
    29  H    0.000323  -0.003616  -0.026230   0.005492  -0.000014  -0.000038
               7          8          9         10         11         12
     1  C   -0.011240   0.010811  -0.000143  -0.011240   0.010811   0.367076
     2  C    0.001158  -0.002262   0.006465  -0.077200  -0.064887  -0.015612
     3  C   -0.005816   0.009723  -0.069037   0.405025   0.393696   0.007205
     4  N   -0.059691  -0.060764   0.214512  -0.059691  -0.060764   0.000024
     5  C    0.405025   0.393696  -0.069037  -0.005816   0.009723   0.007205
     6  C   -0.077200  -0.064887   0.006465   0.001158  -0.002262  -0.015612
     7  C    4.971810  -0.082146  -0.008967   0.002780  -0.000693  -0.000273
     8  C   -0.082146   4.930937   0.007067  -0.000693   0.000021  -0.000267
     9  O   -0.008967   0.007067   8.200874  -0.008967   0.007067   0.000010
    10  C    0.002780  -0.000693  -0.008967   4.971810  -0.082146  -0.000273
    11  C   -0.000693   0.000021   0.007067  -0.082146   4.930937  -0.000267
    12  H   -0.000273  -0.000267   0.000010  -0.000273  -0.000267   0.578369
    13  H    0.004410   0.000060  -0.000047   0.004410   0.000060  -0.025889
    14  H   -0.000011   0.000038  -0.000124  -0.004315  -0.004647  -0.003898
    15  H    0.000301  -0.000235  -0.000216   0.009389  -0.007716  -0.006597
    16  H    0.009389  -0.007716  -0.000216   0.000301  -0.000235  -0.006597
    17  H   -0.004315  -0.004647  -0.000124  -0.000011   0.000038  -0.003898
    18  H    0.370514  -0.008046   0.014890   0.000806  -0.000137   0.000013
    19  H    0.376793  -0.002199  -0.000000   0.000041   0.000018  -0.000006
    20  H    0.377705   0.007237  -0.000206   0.000230   0.000015  -0.000183
    21  H    0.008764   0.369941  -0.001309   0.000052  -0.000116  -0.000023
    22  H   -0.003704   0.379873   0.000748   0.000015   0.000004  -0.000012
    23  H   -0.005640   0.373696   0.015432   0.000003  -0.000043   0.000008
    24  H    0.000041   0.000018  -0.000000   0.376793  -0.002199  -0.000006
    25  H    0.000806  -0.000137   0.014890   0.370514  -0.008046   0.000013
    26  H    0.000230   0.000015  -0.000206   0.377705   0.007237  -0.000183
    27  H    0.000052  -0.000116  -0.001309   0.008764   0.369941  -0.000023
    28  H    0.000003  -0.000043   0.015432  -0.005640   0.373696   0.000008
    29  H    0.000015   0.000004   0.000748  -0.003704   0.379873  -0.000012
              13         14         15         16         17         18
     1  C    0.375974  -0.015545  -0.027571  -0.027571  -0.015545  -0.000422
     2  C   -0.026896   0.360350   0.358335  -0.000357   0.008156  -0.000102
     3  C   -0.006131  -0.015640  -0.014575  -0.004110  -0.000255   0.000313
     4  N   -0.002453   0.004708  -0.002235  -0.002235   0.004708  -0.008847
     5  C   -0.006131  -0.000255  -0.004110  -0.014575  -0.015640  -0.016935
     6  C   -0.026896   0.008156  -0.000357   0.358335   0.360350   0.009720
     7  C    0.004410  -0.000011   0.000301   0.009389  -0.004315   0.370514
     8  C    0.000060   0.000038  -0.000235  -0.007716  -0.004647  -0.008046
     9  O   -0.000047  -0.000124  -0.000216  -0.000216  -0.000124   0.014890
    10  C    0.004410  -0.004315   0.009389   0.000301  -0.000011   0.000806
    11  C    0.000060  -0.004647  -0.007716  -0.000235   0.000038  -0.000137
    12  H   -0.025889  -0.003898  -0.006597  -0.006597  -0.003898   0.000013
    13  H    0.588449  -0.005296   0.006835   0.006835  -0.005296  -0.000262
    14  H   -0.005296   0.576720  -0.024380   0.000012  -0.000307   0.000005
    15  H    0.006835  -0.024380   0.596199   0.006267   0.000012   0.000004
    16  H    0.006835   0.000012   0.006267   0.596199  -0.024380  -0.000318
    17  H   -0.005296  -0.000307   0.000012  -0.024380   0.576720   0.000040
    18  H   -0.000262   0.000005   0.000004  -0.000318   0.000040   0.542727
    19  H   -0.000043  -0.000003  -0.000006  -0.000171   0.003616  -0.018385
    20  H    0.004462   0.000039  -0.000016   0.000000  -0.000583  -0.019887
    21  H    0.000016   0.000001   0.000073   0.007318  -0.000205  -0.000054
    22  H   -0.000027   0.000000   0.000009  -0.000857   0.004002  -0.000078
    23  H    0.000009   0.000001   0.000009   0.000063  -0.000342   0.005399
    24  H   -0.000043   0.003616  -0.000171  -0.000006  -0.000003   0.000003
    25  H   -0.000262   0.000040  -0.000318   0.000004   0.000005   0.000206
    26  H    0.004462  -0.000583   0.000000  -0.000016   0.000039  -0.000204
    27  H    0.000016  -0.000205   0.007318   0.000073   0.000001   0.000003
    28  H    0.000009  -0.000342   0.000063   0.000009   0.000001  -0.000027
    29  H   -0.000027   0.004003  -0.000857   0.000009   0.000000  -0.000002
              19         20         21         22         23         24
     1  C   -0.000024   0.004489  -0.000335   0.000323  -0.000339  -0.000024
     2  C    0.000002  -0.001183   0.000133  -0.000038  -0.000118  -0.003572
     3  C   -0.000069   0.000913  -0.000058  -0.000014   0.000709  -0.020835
     4  N    0.005449  -0.002604   0.001570   0.005492  -0.008597   0.005449
     5  C   -0.020835  -0.015788  -0.012803  -0.026230  -0.014035  -0.000069
     6  C   -0.003572  -0.007480  -0.008394  -0.003616   0.008622   0.000002
     7  C    0.376793   0.377705   0.008764  -0.003704  -0.005640   0.000041
     8  C   -0.002199   0.007237   0.369941   0.379873   0.373696   0.000018
     9  O   -0.000000  -0.000206  -0.001309   0.000748   0.015432  -0.000000
    10  C    0.000041   0.000230   0.000052   0.000015   0.000003   0.376793
    11  C    0.000018   0.000015  -0.000116   0.000004  -0.000043  -0.002199
    12  H   -0.000006  -0.000183  -0.000023  -0.000012   0.000008  -0.000006
    13  H   -0.000043   0.004462   0.000016  -0.000027   0.000009  -0.000043
    14  H   -0.000003   0.000039   0.000001   0.000000   0.000001   0.003616
    15  H   -0.000006  -0.000016   0.000073   0.000009   0.000009  -0.000171
    16  H   -0.000171   0.000000   0.007318  -0.000857   0.000063  -0.000006
    17  H    0.003616  -0.000583  -0.000205   0.004002  -0.000342  -0.000003
    18  H   -0.018385  -0.019887  -0.000054  -0.000078   0.005399   0.000003
    19  H    0.551357  -0.019436  -0.000067   0.003086  -0.000662  -0.000001
    20  H   -0.019436   0.538450  -0.000312  -0.000076   0.000020   0.000056
    21  H   -0.000067  -0.000312   0.553184  -0.018221  -0.019093  -0.000002
    22  H    0.003086  -0.000076  -0.018221   0.558145  -0.019532  -0.000000
    23  H   -0.000662   0.000020  -0.019093  -0.019532   0.533908   0.000001
    24  H   -0.000001   0.000056  -0.000002  -0.000000   0.000001   0.551357
    25  H    0.000003  -0.000204   0.000003  -0.000002  -0.000027  -0.018385
    26  H    0.000056   0.005745  -0.000004   0.000000  -0.000001  -0.019436
    27  H   -0.000002  -0.000004   0.000166   0.000003  -0.000004  -0.000067
    28  H    0.000001  -0.000001  -0.000004  -0.000001  -0.000017  -0.000662
    29  H   -0.000000   0.000000   0.000003  -0.000000  -0.000001   0.003086
              25         26         27         28         29
     1  C   -0.000422   0.004489  -0.000335  -0.000339   0.000323
     2  C    0.009720  -0.007480  -0.008394   0.008622  -0.003616
     3  C   -0.016935  -0.015788  -0.012803  -0.014035  -0.026230
     4  N   -0.008847  -0.002604   0.001570  -0.008597   0.005492
     5  C    0.000313   0.000913  -0.000058   0.000709  -0.000014
     6  C   -0.000102  -0.001183   0.000133  -0.000118  -0.000038
     7  C    0.000806   0.000230   0.000052   0.000003   0.000015
     8  C   -0.000137   0.000015  -0.000116  -0.000043   0.000004
     9  O    0.014890  -0.000206  -0.001309   0.015432   0.000748
    10  C    0.370514   0.377705   0.008764  -0.005640  -0.003704
    11  C   -0.008046   0.007237   0.369941   0.373696   0.379873
    12  H    0.000013  -0.000183  -0.000023   0.000008  -0.000012
    13  H   -0.000262   0.004462   0.000016   0.000009  -0.000027
    14  H    0.000040  -0.000583  -0.000205  -0.000342   0.004003
    15  H   -0.000318   0.000000   0.007318   0.000063  -0.000857
    16  H    0.000004  -0.000016   0.000073   0.000009   0.000009
    17  H    0.000005   0.000039   0.000001   0.000001   0.000000
    18  H    0.000206  -0.000204   0.000003  -0.000027  -0.000002
    19  H    0.000003   0.000056  -0.000002   0.000001  -0.000000
    20  H   -0.000204   0.005745  -0.000004  -0.000001   0.000000
    21  H    0.000003  -0.000004   0.000166  -0.000004   0.000003
    22  H   -0.000002   0.000000   0.000003  -0.000001  -0.000000
    23  H   -0.000027  -0.000001  -0.000004  -0.000017  -0.000001
    24  H   -0.018385  -0.019436  -0.000067  -0.000662   0.003086
    25  H    0.542727  -0.019887  -0.000054   0.005399  -0.000078
    26  H   -0.019887   0.538450  -0.000312   0.000020  -0.000076
    27  H   -0.000054  -0.000312   0.553184  -0.019093  -0.018221
    28  H    0.005399   0.000020  -0.019093   0.533908  -0.019531
    29  H   -0.000078  -0.000076  -0.018221  -0.019531   0.558145
          Atomic-Atomic Spin Densities.
               1          2          3          4          5          6
     1  C    0.016858  -0.009357   0.006651  -0.000463   0.006651  -0.009357
     2  C   -0.009357   0.002385   0.002568  -0.001227  -0.003399   0.004256
     3  C    0.006651   0.002568  -0.037823   0.017685   0.007288  -0.003399
     4  N   -0.000463  -0.001227   0.017685   0.687801   0.017685  -0.001227
     5  C    0.006651  -0.003399   0.007288   0.017685  -0.037823   0.002568
     6  C   -0.009357   0.004256  -0.003399  -0.001227   0.002568   0.002385
     7  C   -0.005870   0.001738  -0.003484  -0.019593  -0.014060   0.005557
     8  C    0.002224  -0.000634   0.000490  -0.019257  -0.002622   0.000830
     9  O   -0.000095  -0.000082  -0.002949  -0.180595  -0.002949  -0.000082
    10  C   -0.005870   0.005557  -0.014060  -0.019594  -0.003484   0.001738
    11  C    0.002224   0.000830  -0.002622  -0.019257   0.000490  -0.000634
    12  H    0.001036  -0.000490   0.000119  -0.000026   0.000119  -0.000490
    13  H   -0.002060   0.001048  -0.000780  -0.000224  -0.000780   0.001048
    14  H   -0.000249   0.000606  -0.000216   0.000003  -0.000007   0.000039
    15  H   -0.001678   0.000648  -0.000476   0.001616  -0.000196   0.000591
    16  H   -0.001678   0.000591  -0.000196   0.001616  -0.000476   0.000648
    17  H   -0.000249   0.000039  -0.000007   0.000003  -0.000216   0.000606
    18  H   -0.000227   0.000084  -0.000397  -0.004706   0.000709  -0.000030
    19  H    0.000328  -0.000062   0.000130   0.000586   0.002417  -0.000643
    20  H    0.000352  -0.000114   0.000207   0.000894   0.000862  -0.000215
    21  H   -0.000193   0.000084   0.000001   0.003178   0.001896  -0.000049
    22  H   -0.000032   0.000017  -0.000025   0.000039   0.001961  -0.000121
    23  H   -0.000005   0.000009  -0.000071   0.000253   0.000677  -0.000203
    24  H    0.000328  -0.000643   0.002417   0.000586   0.000130  -0.000062
    25  H   -0.000227  -0.000030   0.000709  -0.004706  -0.000397   0.000084
    26  H    0.000352  -0.000215   0.000862   0.000894   0.000207  -0.000114
    27  H   -0.000193  -0.000049   0.001896   0.003178   0.000001   0.000084
    28  H   -0.000005  -0.000203   0.000677   0.000253  -0.000071   0.000009
    29  H   -0.000032  -0.000121   0.001961   0.000039  -0.000025   0.000017
               7          8          9         10         11         12
     1  C   -0.005870   0.002224  -0.000095  -0.005870   0.002224   0.001036
     2  C    0.001738  -0.000634  -0.000082   0.005557   0.000830  -0.000490
     3  C   -0.003484   0.000490  -0.002949  -0.014060  -0.002622   0.000119
     4  N   -0.019593  -0.019257  -0.180595  -0.019594  -0.019257  -0.000026
     5  C   -0.014060  -0.002622  -0.002949  -0.003484   0.000490   0.000119
     6  C    0.005557   0.000830  -0.000082   0.001738  -0.000634  -0.000490
     7  C    0.077126  -0.022148   0.005635   0.003467  -0.000603  -0.000053
     8  C   -0.022148   0.056246   0.004674  -0.000603   0.000681   0.000019
     9  O    0.005635   0.004674   0.670262   0.005635   0.004674   0.000000
    10  C    0.003467  -0.000603   0.005635   0.077127  -0.022148  -0.000053
    11  C   -0.000603   0.000681   0.004674  -0.022148   0.056246   0.000019
    12  H   -0.000053   0.000019   0.000000  -0.000053   0.000019   0.000451
    13  H    0.000831  -0.000104   0.000019   0.000831  -0.000104  -0.000149
    14  H    0.000018  -0.000006   0.000004   0.000612  -0.000381  -0.000015
    15  H    0.000117  -0.000174  -0.000087   0.000841  -0.001962  -0.000084
    16  H    0.000841  -0.001962  -0.000087   0.000117  -0.000174  -0.000084
    17  H    0.000612  -0.000381   0.000004   0.000018  -0.000006  -0.000015
    18  H    0.004066  -0.002073   0.002464   0.000511  -0.000082  -0.000002
    19  H   -0.005125   0.002751  -0.000223  -0.000099   0.000010   0.000002
    20  H   -0.001437   0.000261  -0.000164  -0.000317   0.000031   0.000005
    21  H    0.000976  -0.007171  -0.001479   0.000042  -0.000160  -0.000002
    22  H    0.000959  -0.002524  -0.000068   0.000005  -0.000005  -0.000000
    23  H    0.000520  -0.000464  -0.001035   0.000003   0.000001  -0.000000
    24  H   -0.000099   0.000010  -0.000223  -0.005125   0.002751   0.000002
    25  H    0.000511  -0.000082   0.002464   0.004066  -0.002073  -0.000002
    26  H   -0.000317   0.000031  -0.000164  -0.001437   0.000261   0.000005
    27  H    0.000042  -0.000160  -0.001479   0.000976  -0.007171  -0.000002
    28  H    0.000003   0.000001  -0.001035   0.000520  -0.000464  -0.000000
    29  H    0.000005  -0.000005  -0.000068   0.000959  -0.002524  -0.000000
              13         14         15         16         17         18
     1  C   -0.002060  -0.000249  -0.001678  -0.001678  -0.000249  -0.000227
     2  C    0.001048   0.000606   0.000648   0.000591   0.000039   0.000084
     3  C   -0.000780  -0.000216  -0.000476  -0.000196  -0.000007  -0.000397
     4  N   -0.000224   0.000003   0.001616   0.001616   0.000003  -0.004706
     5  C   -0.000780  -0.000007  -0.000196  -0.000476  -0.000216   0.000709
     6  C    0.001048   0.000039   0.000591   0.000648   0.000606  -0.000030
     7  C    0.000831   0.000018   0.000117   0.000841   0.000612   0.004066
     8  C   -0.000104  -0.000006  -0.000174  -0.001962  -0.000381  -0.002073
     9  O    0.000019   0.000004  -0.000087  -0.000087   0.000004   0.002464
    10  C    0.000831   0.000612   0.000841   0.000117   0.000018   0.000511
    11  C   -0.000104  -0.000381  -0.001962  -0.000174  -0.000006  -0.000082
    12  H   -0.000149  -0.000015  -0.000084  -0.000084  -0.000015  -0.000002
    13  H    0.000703   0.000034   0.000075   0.000075   0.000034   0.000047
    14  H    0.000034  -0.001263   0.000250   0.000012   0.000001   0.000000
    15  H    0.000075   0.000250   0.000329   0.000214   0.000012   0.000005
    16  H    0.000075   0.000012   0.000214   0.000329   0.000250   0.000038
    17  H    0.000034   0.000001   0.000012   0.000250  -0.001263   0.000032
    18  H    0.000047   0.000000   0.000005   0.000038   0.000032  -0.000664
    19  H   -0.000069  -0.000000  -0.000003  -0.000072  -0.000170  -0.002084
    20  H   -0.000087  -0.000003  -0.000005  -0.000017  -0.000030  -0.000315
    21  H    0.000005   0.000000   0.000040   0.000335   0.000042   0.000131
    22  H    0.000002  -0.000000   0.000002   0.000132  -0.000052   0.000125
    23  H    0.000000  -0.000000   0.000000   0.000015   0.000017  -0.000126
    24  H   -0.000069  -0.000170  -0.000072  -0.000003  -0.000000  -0.000029
    25  H    0.000047   0.000032   0.000038   0.000005   0.000000   0.000242
    26  H   -0.000087  -0.000030  -0.000017  -0.000005  -0.000003  -0.000073
    27  H    0.000005   0.000042   0.000335   0.000040   0.000000   0.000007
    28  H    0.000000   0.000017   0.000015   0.000000  -0.000000   0.000003
    29  H    0.000002  -0.000052   0.000132   0.000002  -0.000000   0.000001
              19         20         21         22         23         24
     1  C    0.000328   0.000352  -0.000193  -0.000032  -0.000005   0.000328
     2  C   -0.000062  -0.000114   0.000084   0.000017   0.000009  -0.000643
     3  C    0.000130   0.000207   0.000001  -0.000025  -0.000071   0.002417
     4  N    0.000586   0.000894   0.003178   0.000039   0.000253   0.000586
     5  C    0.002417   0.000862   0.001896   0.001961   0.000677   0.000130
     6  C   -0.000643  -0.000215  -0.000049  -0.000121  -0.000203  -0.000062
     7  C   -0.005125  -0.001437   0.000976   0.000959   0.000520  -0.000099
     8  C    0.002751   0.000261  -0.007171  -0.002524  -0.000464   0.000010
     9  O   -0.000223  -0.000164  -0.001479  -0.000068  -0.001035  -0.000223
    10  C   -0.000099  -0.000317   0.000042   0.000005   0.000003  -0.005125
    11  C    0.000010   0.000031  -0.000160  -0.000005   0.000001   0.002751
    12  H    0.000002   0.000005  -0.000002  -0.000000  -0.000000   0.000002
    13  H   -0.000069  -0.000087   0.000005   0.000002   0.000000  -0.000069
    14  H   -0.000000  -0.000003   0.000000  -0.000000  -0.000000  -0.000170
    15  H   -0.000003  -0.000005   0.000040   0.000002   0.000000  -0.000072
    16  H   -0.000072  -0.000017   0.000335   0.000132   0.000015  -0.000003
    17  H   -0.000170  -0.000030   0.000042  -0.000052   0.000017  -0.000000
    18  H   -0.002084  -0.000315   0.000131   0.000125  -0.000126  -0.000029
    19  H    0.004595   0.000483  -0.000089  -0.000219  -0.000062   0.000002
    20  H    0.000483  -0.001312  -0.000010  -0.000013  -0.000003   0.000025
    21  H   -0.000089  -0.000010   0.001776   0.000566   0.000286  -0.000001
    22  H   -0.000219  -0.000013   0.000566  -0.002088   0.000163  -0.000000
    23  H   -0.000062  -0.000003   0.000286   0.000163  -0.001120  -0.000000
    24  H    0.000002   0.000025  -0.000001  -0.000000  -0.000000   0.004595
    25  H   -0.000029  -0.000073   0.000007   0.000001   0.000003  -0.002084
    26  H    0.000025   0.000065  -0.000002  -0.000001  -0.000000   0.000483
    27  H   -0.000001  -0.000002   0.000049   0.000001   0.000002  -0.000089
    28  H   -0.000000  -0.000000   0.000002   0.000000   0.000002  -0.000062
    29  H   -0.000000  -0.000001   0.000001  -0.000000   0.000000  -0.000219
              25         26         27         28         29
     1  C   -0.000227   0.000352  -0.000193  -0.000005  -0.000032
     2  C   -0.000030  -0.000215  -0.000049  -0.000203  -0.000121
     3  C    0.000709   0.000862   0.001896   0.000677   0.001961
     4  N   -0.004706   0.000894   0.003178   0.000253   0.000039
     5  C   -0.000397   0.000207   0.000001  -0.000071  -0.000025
     6  C    0.000084  -0.000114   0.000084   0.000009   0.000017
     7  C    0.000511  -0.000317   0.000042   0.000003   0.000005
     8  C   -0.000082   0.000031  -0.000160   0.000001  -0.000005
     9  O    0.002464  -0.000164  -0.001479  -0.001035  -0.000068
    10  C    0.004066  -0.001437   0.000976   0.000520   0.000959
    11  C   -0.002073   0.000261  -0.007171  -0.000464  -0.002524
    12  H   -0.000002   0.000005  -0.000002  -0.000000  -0.000000
    13  H    0.000047  -0.000087   0.000005   0.000000   0.000002
    14  H    0.000032  -0.000030   0.000042   0.000017  -0.000052
    15  H    0.000038  -0.000017   0.000335   0.000015   0.000132
    16  H    0.000005  -0.000005   0.000040   0.000000   0.000002
    17  H    0.000000  -0.000003   0.000000  -0.000000  -0.000000
    18  H    0.000242  -0.000073   0.000007   0.000003   0.000001
    19  H   -0.000029   0.000025  -0.000001  -0.000000  -0.000000
    20  H   -0.000073   0.000065  -0.000002  -0.000000  -0.000001
    21  H    0.000007  -0.000002   0.000049   0.000002   0.000001
    22  H    0.000001  -0.000001   0.000001   0.000000  -0.000000
    23  H    0.000003  -0.000000   0.000002   0.000002   0.000000
    24  H   -0.002084   0.000483  -0.000089  -0.000062  -0.000219
    25  H   -0.000664  -0.000315   0.000131  -0.000126   0.000125
    26  H   -0.000315  -0.001312  -0.000010  -0.000003  -0.000013
    27  H    0.000131  -0.000010   0.001776   0.000286   0.000566
    28  H   -0.000126  -0.000003   0.000286  -0.001120   0.000163
    29  H    0.000125  -0.000013   0.000566   0.000163  -0.002088
 Mulliken charges and spin densities:
               1          2
     1  C   -0.173160  -0.000836
     2  C   -0.157904   0.003835
     3  C   -0.124316  -0.022843
     4  N   -0.061324   0.465430
     5  C   -0.124316  -0.022843
     6  C   -0.157904   0.003835
     7  C   -0.270101   0.030236
     8  C   -0.248980   0.007847
     9  O   -0.344689   0.502971
    10  C   -0.270101   0.030236
    11  C   -0.248980   0.007847
    12  H    0.119701   0.000314
    13  H    0.109694   0.000297
    14  H    0.117863  -0.000722
    15  H    0.104545   0.000506
    16  H    0.104545   0.000506
    17  H    0.117863  -0.000722
    18  H    0.129065  -0.002343
    19  H    0.125060   0.002380
    20  H    0.128602  -0.000932
    21  H    0.119778   0.000261
    22  H    0.120708  -0.001174
    23  H    0.130569  -0.001138
    24  H    0.125060   0.002380
    25  H    0.129065  -0.002343
    26  H    0.128602  -0.000932
    27  H    0.119778   0.000261
    28  H    0.130569  -0.001138
    29  H    0.120708  -0.001174
 Sum of Mulliken charges =  -0.00000   1.00000
 Mulliken charges and spin densities with hydrogens summed into heavy atoms:
               1          2
     1  C    0.056235  -0.000225
     2  C    0.064505   0.003620
     3  C   -0.124316  -0.022843
     4  N   -0.061324   0.465430
     5  C   -0.124316  -0.022843
     6  C    0.064505   0.003620
     7  C    0.112625   0.029339
     8  C    0.122075   0.005796
     9  O   -0.344689   0.502971
    10  C    0.112625   0.029339
    11  C    0.122075   0.005796
 APT charges:
               1
     1  C   -0.832353
     2  C   -0.744727
     3  C   -0.526668
     4  N    0.090403
     5  C   -0.526672
     6  C   -0.744728
     7  C   -1.006134
     8  C   -1.053752
     9  O   -0.266348
    10  C   -1.006133
    11  C   -1.053750
    12  H    0.616335
    13  H    0.305706
    14  H    0.530886
    15  H    0.351395
    16  H    0.351395
    17  H    0.530890
    18  H    0.367713
    19  H    0.568892
    20  H    0.264484
    21  H    0.311296
    22  H    0.550008
    23  H    0.429738
    24  H    0.568887
    25  H    0.367713
    26  H    0.264486
    27  H    0.311298
    28  H    0.429737
    29  H    0.550003
 Sum of APT charges =  -0.00000
 APT charges with hydrogens summed into heavy atoms:
               1
     1  C    0.089688
     2  C    0.137554
     3  C   -0.526668
     4  N    0.090403
     5  C   -0.526672
     6  C    0.137557
     7  C    0.194955
     8  C    0.237290
     9  O   -0.266348
    10  C    0.194954
    11  C    0.237288
 Electronic spatial extent (au):  <R**2>=           1678.2695
 Charge=             -0.0000 electrons
 Dipole moment (field-independent basis, Debye):
    X=              0.0001    Y=              3.8183    Z=              0.2937  Tot=              3.8296
 Quadrupole moment (field-independent basis, Debye-Ang):
   XX=            -65.3685   YY=            -76.1050   ZZ=            -68.7917
   XY=             -0.0001   XZ=              0.0000   YZ=             -0.7365
 Traceless Quadrupole moment (field-independent basis, Debye-Ang):
   XX=              4.7199   YY=             -6.0166   ZZ=              1.2967
   XY=             -0.0001   XZ=              0.0000   YZ=             -0.7365
 Octapole moment (field-independent basis, Debye-Ang**2):
  XXX=             -0.0034  YYY=             11.0283  ZZZ=             -3.0088  XYY=             -0.0011
  XXY=             -0.7155  XXZ=              1.5400  XZZ=             -0.0011  YZZ=             -2.0495
  YYZ=              1.2276  XYZ=              0.0000
 Hexadecapole moment (field-independent basis, Debye-Ang**3):
 XXXX=          -1108.9745 YYYY=           -712.6165 ZZZZ=           -428.2872 XXXY=              0.0038
 XXXZ=             -0.0049 YYYX=              0.0039 YYYZ=             -8.0186 ZZZX=             -0.0060
 ZZZY=              1.3132 XXYY=           -301.6503 XXZZ=           -267.4049 YYZZ=           -184.6890
 XXYZ=             -0.0384 YYXZ=             -0.0020 ZZXY=              0.0015
 N-N= 7.164359744591D+02 E-N=-2.553785832977D+03  KE= 4.781680198740D+02
  Exact polarizability:   0.000   0.000   0.000   0.000   0.000   0.000
 Approx polarizability: 107.983   0.000 114.724   0.000   0.043 103.623
                          Isotropic Fermi Contact Couplings
        Atom                 a.u.       MegaHertz       Gauss      10(-4) cm-1
     1  C(13)             -0.00085      -0.95620      -0.34119      -0.31895
     2  C(13)              0.00308       3.46788       1.23743       1.15676
     3  C(13)             -0.01548     -17.40286      -6.20977      -5.80497
     4  N(14)              0.19841      64.10687      22.87493      21.38375
     5  C(13)             -0.01548     -17.40287      -6.20978      -5.80497
     6  C(13)              0.00308       3.46788       1.23743       1.15676
     7  C(13)              0.02291      25.75549       9.19020       8.59111
     8  C(13)              0.00942      10.59037       3.77891       3.53257
     9  O(17)              0.19846    -120.30787     -42.92884     -40.13038
    10  C(13)              0.02291      25.75550       9.19020       8.59111
    11  C(13)              0.00942      10.59037       3.77891       3.53257
    12  H(1)               0.00015       0.69035       0.24633       0.23028
    13  H(1)               0.00005       0.20779       0.07414       0.06931
    14  H(1)              -0.00027      -1.19986      -0.42814      -0.40023
    15  H(1)              -0.00009      -0.40920      -0.14601      -0.13650
    16  H(1)              -0.00009      -0.40920      -0.14601      -0.13650
    17  H(1)              -0.00027      -1.19986      -0.42814      -0.40023
    18  H(1)              -0.00063      -2.83182      -1.01046      -0.94459
    19  H(1)               0.00085       3.80322       1.35709       1.26862
    20  H(1)              -0.00037      -1.65669      -0.59115      -0.55261
    21  H(1)              -0.00022      -0.96165      -0.34314      -0.32077
    22  H(1)              -0.00041      -1.82264      -0.65036      -0.60797
    23  H(1)              -0.00020      -0.90732      -0.32375      -0.30265
    24  H(1)               0.00085       3.80323       1.35709       1.26862
    25  H(1)              -0.00063      -2.83182      -1.01047      -0.94459
    26  H(1)              -0.00037      -1.65668      -0.59114      -0.55261
    27  H(1)              -0.00022      -0.96165      -0.34314      -0.32077
    28  H(1)              -0.00020      -0.90732      -0.32376      -0.30265
    29  H(1)              -0.00041      -1.82264      -0.65036      -0.60797
 --------------------------------------------------------
       Center         ----  Spin Dipole Couplings  ----
                      3XX-RR        3YY-RR        3ZZ-RR
 --------------------------------------------------------
     1   Atom       -0.004199      0.007671     -0.003472
     2   Atom       -0.002956      0.008994     -0.006037
     3   Atom        0.010867     -0.001627     -0.009241
     4   Atom       -0.621165     -0.608346      1.229511
     5   Atom        0.010868     -0.001628     -0.009240
     6   Atom       -0.002956      0.008993     -0.006037
     7   Atom       -0.008988     -0.018194      0.027182
     8   Atom        0.016198     -0.006830     -0.009368
     9   Atom       -1.022513     -1.081641      2.104154
    10   Atom       -0.008986     -0.018194      0.027180
    11   Atom        0.016198     -0.006831     -0.009367
    12   Atom       -0.001759      0.003413     -0.001654
    13   Atom       -0.002812      0.004725     -0.001913
    14   Atom       -0.000002      0.002424     -0.002421
    15   Atom       -0.002072      0.003888     -0.001817
    16   Atom       -0.002071      0.003888     -0.001817
    17   Atom       -0.000002      0.002424     -0.002421
    18   Atom        0.000494     -0.003526      0.003032
    19   Atom        0.004314     -0.002901     -0.001413
    20   Atom       -0.002854     -0.001657      0.004511
    21   Atom        0.004756     -0.005840      0.001083
    22   Atom        0.005379     -0.002397     -0.002982
    23   Atom        0.011705     -0.005006     -0.006699
    24   Atom        0.004314     -0.002901     -0.001413
    25   Atom        0.000495     -0.003526      0.003031
    26   Atom       -0.002854     -0.001657      0.004511
    27   Atom        0.004756     -0.005839      0.001084
    28   Atom        0.011706     -0.005006     -0.006699
    29   Atom        0.005379     -0.002397     -0.002982
 --------------------------------------------------------
                        XY            XZ            YZ
 --------------------------------------------------------
     1   Atom        0.000000     -0.000000      0.000650
     2   Atom       -0.006432      0.000503      0.000160
     3   Atom       -0.013645     -0.008198      0.003664
     4   Atom        0.000001     -0.000030     -0.035503
     5   Atom        0.013645      0.008199      0.003664
     6   Atom        0.006433     -0.000503      0.000160
     7   Atom       -0.000768      0.024783     -0.007275
     8   Atom       -0.004216     -0.009626      0.002647
     9   Atom       -0.000003     -0.000048      0.105891
    10   Atom        0.000768     -0.024784     -0.007274
    11   Atom        0.004215      0.009627      0.002647
    12   Atom        0.000000     -0.000000     -0.000205
    13   Atom        0.000000      0.000000      0.002862
    14   Atom       -0.003735     -0.000013     -0.000062
    15   Atom       -0.004605      0.002218     -0.004597
    16   Atom        0.004605     -0.002218     -0.004597
    17   Atom        0.003735      0.000013     -0.000062
    18   Atom        0.001986      0.010230      0.000320
    19   Atom        0.003825      0.003167      0.000880
    20   Atom        0.001479      0.002544      0.006387
    21   Atom        0.001311     -0.008760     -0.001032
    22   Atom        0.002333     -0.001563     -0.000228
    23   Atom       -0.002674     -0.002401      0.000015
    24   Atom       -0.003825     -0.003167      0.000880
    25   Atom       -0.001986     -0.010230      0.000320
    26   Atom       -0.001479     -0.002544      0.006387
    27   Atom       -0.001312      0.008760     -0.001033
    28   Atom        0.002674      0.002402      0.000015
    29   Atom       -0.002334      0.001564     -0.000228
 --------------------------------------------------------


 ---------------------------------------------------------------------------------
              Anisotropic Spin Dipole Couplings in Principal Axis System
 ---------------------------------------------------------------------------------

       Atom             a.u.   MegaHertz   Gauss  10(-4) cm-1        Axes

              Baa    -0.0042    -0.563    -0.201    -0.188  1.0000 -0.0000  0.0000
     1 C(13)  Bbb    -0.0035    -0.471    -0.168    -0.157 -0.0000 -0.0580  0.9983
              Bcc     0.0077     1.034     0.369     0.345  0.0000  0.9983  0.0580
 
              Baa    -0.0064    -0.864    -0.308    -0.288 -0.5604 -0.2417  0.7922
     2 C(13)  Bbb    -0.0054    -0.719    -0.256    -0.240  0.7254  0.3183  0.6103
              Bcc     0.0118     1.583     0.565     0.528 -0.3997  0.9166 -0.0031
 
              Baa    -0.0125    -1.682    -0.600    -0.561  0.4710  0.3121  0.8251
     3 C(13)  Bbb    -0.0096    -1.289    -0.460    -0.430  0.3359  0.8014 -0.4949
              Bcc     0.0221     2.971     1.060     0.991  0.8157 -0.5103 -0.2726
 
              Baa    -0.6212   -23.957    -8.548    -7.991  1.0000 -0.0000  0.0000
     4 N(14)  Bbb    -0.6090   -23.489    -8.381    -7.835  0.0000  0.9998  0.0193
              Bcc     1.2302    47.446    16.930    15.826 -0.0000 -0.0193  0.9998
 
              Baa    -0.0125    -1.682    -0.600    -0.561 -0.4710  0.3121  0.8251
     5 C(13)  Bbb    -0.0096    -1.289    -0.460    -0.430 -0.3359  0.8014 -0.4949
              Bcc     0.0221     2.971     1.060     0.991  0.8157  0.5102  0.2727
 
              Baa    -0.0064    -0.864    -0.308    -0.288  0.5604 -0.2417  0.7922
     6 C(13)  Bbb    -0.0054    -0.719    -0.256    -0.240  0.7254 -0.3184 -0.6103
              Bcc     0.0118     1.583     0.565     0.528  0.3997  0.9166 -0.0030
 
              Baa    -0.0232    -3.111    -1.110    -1.038  0.7327 -0.5226 -0.4360
     7 C(13)  Bbb    -0.0174    -2.333    -0.832    -0.778  0.5143  0.8447 -0.1481
              Bcc     0.0406     5.444     1.943     1.816  0.4457 -0.1157  0.8877
 
              Baa    -0.0128    -1.724    -0.615    -0.575  0.2787 -0.2164  0.9357
     8 C(13)  Bbb    -0.0074    -0.998    -0.356    -0.333  0.2335  0.9603  0.1526
              Bcc     0.0203     2.722     0.971     0.908  0.9316 -0.1759 -0.3181
 
              Baa    -1.0852    78.521    28.018    26.192  0.0000  0.9994 -0.0332
     9 O(17)  Bbb    -1.0225    73.988    26.401    24.680  1.0000 -0.0000  0.0000
              Bcc     2.1077  -152.510   -54.419   -50.872 -0.0000  0.0332  0.9994
 
              Baa    -0.0232    -3.111    -1.110    -1.038  0.7327  0.5225  0.4360
    10 C(13)  Bbb    -0.0174    -2.333    -0.832    -0.778 -0.5143  0.8447 -0.1481
              Bcc     0.0406     5.444     1.943     1.816 -0.4457 -0.1157  0.8877
 
              Baa    -0.0128    -1.724    -0.615    -0.575 -0.2787 -0.2164  0.9357
    11 C(13)  Bbb    -0.0074    -0.998    -0.356    -0.333 -0.2334  0.9603  0.1526
              Bcc     0.0203     2.722     0.971     0.908  0.9316  0.1759  0.3182
 
              Baa    -0.0018    -0.938    -0.335    -0.313  1.0000 -0.0000  0.0000
    12 H(1)   Bbb    -0.0017    -0.887    -0.316    -0.296 -0.0000  0.0404  0.9992
              Bcc     0.0034     1.825     0.651     0.609  0.0000  0.9992 -0.0404
 
              Baa    -0.0030    -1.588    -0.567    -0.530 -0.0000 -0.3484  0.9374
    13 H(1)   Bbb    -0.0028    -1.500    -0.535    -0.500  1.0000 -0.0000  0.0000
              Bcc     0.0058     3.089     1.102     1.030  0.0000  0.9374  0.3484
 
              Baa    -0.0027    -1.453    -0.519    -0.485  0.7989  0.5815  0.1538
    14 H(1)   Bbb    -0.0024    -1.288    -0.460    -0.430 -0.1277 -0.0859  0.9881
              Bcc     0.0051     2.741     0.978     0.914 -0.5878  0.8090 -0.0057
 
              Baa    -0.0047    -2.504    -0.893    -0.835  0.6899  0.5928  0.4155
    15 H(1)   Bbb    -0.0041    -2.210    -0.789    -0.737 -0.5868  0.1218  0.8005
              Bcc     0.0088     4.714     1.682     1.572 -0.4240  0.7961 -0.4319
 
              Baa    -0.0047    -2.504    -0.893    -0.835  0.6899 -0.5928 -0.4155
    16 H(1)   Bbb    -0.0041    -2.210    -0.789    -0.737  0.5868  0.1218  0.8005
              Bcc     0.0088     4.714     1.682     1.572  0.4240  0.7961 -0.4319
 
              Baa    -0.0027    -1.453    -0.519    -0.485  0.7988 -0.5815 -0.1538
    17 H(1)   Bbb    -0.0024    -1.288    -0.460    -0.430  0.1277 -0.0859  0.9881
              Bcc     0.0051     2.741     0.978     0.914  0.5878  0.8090 -0.0057
 
              Baa    -0.0089    -4.726    -1.686    -1.576  0.7395 -0.2377 -0.6298
    18 H(1)   Bbb    -0.0034    -1.797    -0.641    -0.599  0.1141  0.9663 -0.2307
              Bcc     0.0122     6.523     2.328     2.176  0.6635  0.0987  0.7417
 
              Baa    -0.0046    -2.476    -0.883    -0.826 -0.4430  0.8748  0.1961
    19 H(1)   Bbb    -0.0026    -1.365    -0.487    -0.455 -0.2398 -0.3263  0.9143
              Bcc     0.0072     3.840     1.370     1.281  0.8639  0.3580  0.3543
 
              Baa    -0.0057    -3.025    -1.080    -1.009  0.0452  0.8411 -0.5389
    20 H(1)   Bbb    -0.0036    -1.902    -0.679    -0.634  0.9706 -0.1646 -0.1756
              Bcc     0.0092     4.927     1.758     1.644  0.2364  0.5152  0.8238
 
              Baa    -0.0060    -3.225    -1.151    -1.076  0.5918 -0.4621  0.6605
    21 H(1)   Bbb    -0.0060    -3.192    -1.139    -1.065  0.2286  0.8819  0.4123
              Bcc     0.0120     6.416     2.290     2.140  0.7730  0.0930 -0.6276
 
              Baa    -0.0034    -1.795    -0.641    -0.599  0.2741 -0.4619  0.8435
    22 H(1)   Bbb    -0.0029    -1.561    -0.557    -0.521 -0.1422  0.8480  0.5105
              Bcc     0.0063     3.356     1.198     1.120  0.9511  0.2598 -0.1668
 
              Baa    -0.0071    -3.772    -1.346    -1.258  0.1510  0.1888  0.9703
    23 H(1)   Bbb    -0.0053    -2.853    -1.018    -0.952  0.1229  0.9704 -0.2079
              Bcc     0.0124     6.626     2.364     2.210  0.9809 -0.1506 -0.1233
 
              Baa    -0.0046    -2.476    -0.883    -0.826  0.4430  0.8748  0.1961
    24 H(1)   Bbb    -0.0026    -1.365    -0.487    -0.455  0.2397 -0.3263  0.9144
              Bcc     0.0072     3.840     1.370     1.281  0.8639 -0.3581 -0.3543
 
              Baa    -0.0089    -4.726    -1.686    -1.576  0.7394  0.2377  0.6299
    25 H(1)   Bbb    -0.0034    -1.797    -0.641    -0.599 -0.1141  0.9663 -0.2307
              Bcc     0.0122     6.523     2.328     2.176 -0.6635  0.0988  0.7416
 
              Baa    -0.0057    -3.025    -1.080    -1.009 -0.0451  0.8411 -0.5389
    26 H(1)   Bbb    -0.0036    -1.902    -0.679    -0.634  0.9706  0.1646  0.1756
              Bcc     0.0092     4.927     1.758     1.644 -0.2364  0.5152  0.8238
 
              Baa    -0.0060    -3.225    -1.151    -1.076 -0.5918 -0.4621  0.6604
    27 H(1)   Bbb    -0.0060    -3.192    -1.139    -1.065 -0.2286  0.8819  0.4123
              Bcc     0.0120     6.416     2.290     2.140  0.7730 -0.0930  0.6276
 
              Baa    -0.0071    -3.772    -1.346    -1.258 -0.1510  0.1888  0.9703
    28 H(1)   Bbb    -0.0053    -2.853    -1.018    -0.952 -0.1229  0.9704 -0.2079
              Bcc     0.0124     6.626     2.364     2.210  0.9809  0.1506  0.1233
 
              Baa    -0.0034    -1.795    -0.641    -0.599 -0.2741 -0.4619  0.8435
    29 H(1)   Bbb    -0.0029    -1.561    -0.557    -0.521  0.1422  0.8480  0.5105
              Bcc     0.0063     3.356     1.198     1.120  0.9511 -0.2599  0.1668
 

 ---------------------------------------------------------------------------------

 No NMR shielding tensors so no spin-rotation constants.
 Leave Link  601 at Wed Feb 28 21:11:56 2024, MaxMem=  2147483648 cpu:               6.0 elap:               0.2
 (Enter /software/gaussian-16RevA.03-el7-x86_64/g16/l716.exe)
 Dipole        = 2.75560513D-05 1.50224760D+00 1.15559670D-01
 Polarizability= 0.00000000D+00 0.00000000D+00 0.00000000D+00
                 0.00000000D+00 0.00000000D+00 0.00000000D+00
 -------------------------------------------------------------------
 Center     Atomic                   Forces (Hartrees/Bohr)
 Number     Number              X              Y              Z
 -------------------------------------------------------------------
      1        6          -0.000000000    0.000001052   -0.000000245
      2        6          -0.000000977    0.000000114   -0.000001573
      3        6          -0.000000042    0.000000492    0.000000718
      4        7           0.000000001   -0.000001164    0.000000543
      5        6           0.000000037    0.000000491    0.000000714
      6        6           0.000000982    0.000000113   -0.000001578
      7        6           0.000000242    0.000001063    0.000001192
      8        6           0.000000212   -0.000000816   -0.000000106
      9        8           0.000000007   -0.000000803   -0.000001441
     10        6          -0.000000232    0.000001058    0.000001186
     11        6          -0.000000222   -0.000000818   -0.000000105
     12        1           0.000000000   -0.000001163   -0.000001341
     13        1           0.000000002    0.000000514   -0.000002270
     14        1           0.000000708   -0.000000612   -0.000001443
     15        1           0.000000024   -0.000001043    0.000000123
     16        1          -0.000000025   -0.000001042    0.000000122
     17        1          -0.000000709   -0.000000612   -0.000001443
     18        1          -0.000000018    0.000002081    0.000000735
     19        1          -0.000000951    0.000000674   -0.000000238
     20        1           0.000000594    0.000000614   -0.000000847
     21        1           0.000000558   -0.000001087    0.000002099
     22        1          -0.000000922   -0.000001127    0.000000528
     23        1          -0.000000055    0.000000432    0.000001204
     24        1           0.000000950    0.000000675   -0.000000247
     25        1           0.000000013    0.000002084    0.000000737
     26        1          -0.000000600    0.000000617   -0.000000846
     27        1          -0.000000555   -0.000001089    0.000002095
     28        1           0.000000054    0.000000434    0.000001203
     29        1           0.000000922   -0.000001132    0.000000525
 -------------------------------------------------------------------
 Cartesian Forces:  Max     0.000002270 RMS     0.000000914
 Leave Link  716 at Wed Feb 28 21:11:56 2024, MaxMem=  2147483648 cpu:               1.4 elap:               0.1
 (Enter /software/gaussian-16RevA.03-el7-x86_64/g16/l9999.exe)
 1\1\GINC-MIDWAY2-0620\FOpt\UwB97XD\def2SVPP\C9H18N1O1(2)\ALESSANDRI\28
 -Feb-2024\0\\#P wB97XD/Def2SVPP opt=(MaxCycles=500, RecalcFC=50) freq 
 scrf=(pcm,solvent=TetraHydroFuran) nosymm int(grid=ultrafine) scf=(xqc
 ,tight)\\Cavity TEMPO THF\\0,2\C,0.0000568065,2.1193365778,-0.00126963
 07\C,-1.2399126255,1.3853656306,-0.494215613\C,-1.3185356796,-0.074820
 3675,-0.0213848366\N,0.0000059057,-0.7472321289,-0.199420637\C,1.31856
 72512,-0.0748700487,-0.0213427524\C,1.2400141541,1.3853188118,-0.49417
 62869\C,1.7337016603,-0.1646588021,1.4569368195\C,2.3389746299,-0.8282
 504951,-0.8806557953\O,-0.000019625,-2.0105709069,-0.104249893\C,-1.73
 37203536,-0.1645939663,1.4568815518\C,-2.3389438808,-0.8281619564,-0.8
 807308671\H,0.0000824317,3.1527069952,-0.3867601678\H,0.0000407473,2.1
 992876897,1.0999259425\H,-2.1615923227,1.8988745726,-0.1705309193\H,-1
 .2390874852,1.3995985618,-1.5996011701\H,1.2392244885,1.3995514828,-1.
 5995618613\H,2.1617030168,1.8987929675,-0.1704625301\H,1.6561192944,-1
 .2089638598,1.8011284935\H,2.7795800454,0.1667557412,1.5732784683\H,1.
 1052079338,0.4636829007,2.1080157482\H,2.0056089847,-0.8687431106,-1.9
 316086775\H,3.3077942268,-0.3019259017,-0.8424140603\H,2.4808882113,-1
 .8577874899,-0.5201216617\H,-2.779589941,0.1668597985,1.5731905301\H,-
 1.6561880563,-1.2089021077,1.801075186\H,-1.1052232966,0.4637237875,2.
 1079803901\H,-2.0055462497,-0.8686662796,-1.9316731485\H,-2.4809072245
 ,-1.8576938724,-0.5202020632\H,-3.3077450479,-0.3018012241,-0.84251955
 81\\Version=ES64L-G16RevA.03\HF=-483.20496\S2=0.753915\S2-1=0.\S2A=0.7
 50011\RMSD=3.203e-09\RMSF=9.138e-07\Dipole=0.0000276,1.5022476,0.11555
 97\Polar=0.,0.,0.,0.,0.,0.\Quadrupole=3.5091176,-4.4731806,0.964063,-0
 .0000948,0.0000346,-0.5475853\PG=C01 [X(C9H18N1O1)]\\@


 MYSTERY IS THE WISDOM OF BLOCKHEADS... HORACE WALPOLE 
 Leave Link 9999 at Wed Feb 28 21:11:56 2024, MaxMem=  2147483648 cpu:               0.8 elap:               0.1
 Job cpu time:       0 days  1 hours 34 minutes 42.9 seconds.
 Elapsed time:       0 days  0 hours  3 minutes 27.1 seconds.
 File lengths (MBytes):  RWF=    404 Int=      0 D2E=      0 Chk=     16 Scr=      8
 Normal termination of Gaussian 16 at Wed Feb 28 21:11:56 2024.
 (Enter /software/gaussian-16RevA.03-el7-x86_64/g16/l1.exe)
 Link1:  Proceeding to internal job step number  2.
 ---------------------------------------------------------------------
 #P Geom=AllCheck Guess=TCheck SCRF=Check GenChk UwB97XD/def2SVPP Freq
 ---------------------------------------------------------------------
 1/6=500,10=4,29=7,30=1,38=1,40=1,71=50/1,3;
 2/12=2,15=1,40=1/2;
 3/5=43,7=202,11=2,14=-4,25=1,30=1,70=2,71=2,74=-58,75=-5,116=2,140=1/1,2,3;
 4/5=101/1;
 5/5=2,8=3,13=1,32=2,38=6,98=1/2,8;
 8/6=4,10=90,11=11/1;
 11/6=1,8=1,9=11,15=111,16=1,31=1/1,2,10;
 10/6=1,31=1/2;
 6/7=2,8=2,9=2,10=2,28=1/1;
 7/8=1,10=1,25=1,30=1/1,2,3,16;
 1/6=500,10=4,30=1,71=50/3;
 99//99;
 Leave Link    1 at Wed Feb 28 21:11:56 2024, MaxMem=  2147483648 cpu:               0.9 elap:               0.0
 (Enter /software/gaussian-16RevA.03-el7-x86_64/g16/l101.exe)
 Structure from the checkpoint file:  "TEMPO-cavity-in-THF-wB97XD.chk"
 ----------------
 Cavity TEMPO THF
 ----------------
 Charge =  0 Multiplicity = 2
 Redundant internal coordinates found in file.  (old form).
 C,0,0.0000568065,2.1193365778,-0.0012696307
 C,0,-1.2399126255,1.3853656306,-0.494215613
 C,0,-1.3185356796,-0.0748203675,-0.0213848366
 N,0,0.0000059057,-0.7472321289,-0.199420637
 C,0,1.3185672512,-0.0748700487,-0.0213427524
 C,0,1.2400141541,1.3853188118,-0.4941762869
 C,0,1.7337016603,-0.1646588021,1.4569368195
 C,0,2.3389746299,-0.8282504951,-0.8806557953
 O,0,-0.000019625,-2.0105709069,-0.104249893
 C,0,-1.7337203536,-0.1645939663,1.4568815518
 C,0,-2.3389438808,-0.8281619564,-0.8807308671
 H,0,0.0000824317,3.1527069952,-0.3867601678
 H,0,0.0000407473,2.1992876897,1.0999259425
 H,0,-2.1615923227,1.8988745726,-0.1705309193
 H,0,-1.2390874852,1.3995985618,-1.5996011701
 H,0,1.2392244885,1.3995514828,-1.5995618613
 H,0,2.1617030168,1.8987929675,-0.1704625301
 H,0,1.6561192944,-1.2089638598,1.8011284935
 H,0,2.7795800454,0.1667557412,1.5732784683
 H,0,1.1052079338,0.4636829007,2.1080157482
 H,0,2.0056089847,-0.8687431106,-1.9316086775
 H,0,3.3077942268,-0.3019259017,-0.8424140603
 H,0,2.4808882113,-1.8577874899,-0.5201216617
 H,0,-2.779589941,0.1668597985,1.5731905301
 H,0,-1.6561880563,-1.2089021077,1.801075186
 H,0,-1.1052232966,0.4637237875,2.1079803901
 H,0,-2.0055462497,-0.8686662796,-1.9316731485
 H,0,-2.4809072245,-1.8576938724,-0.5202020632
 H,0,-3.3077450479,-0.3018012241,-0.8425195581
 Recover connectivity data from disk.
 ITRead=  0  0  0  0  0  0  0  0  0  0  0  0  0  0  0  0  0  0  0  0
 ITRead=  0  0  0  0  0  0  0  0  0
 MicOpt= -1 -1 -1 -1 -1 -1 -1 -1 -1 -1 -1 -1 -1 -1 -1 -1 -1 -1 -1 -1
 MicOpt= -1 -1 -1 -1 -1 -1 -1 -1 -1
 NAtoms=     29 NQM=       29 NQMF=       0 NMMI=      0 NMMIF=      0
                NMic=       0 NMicF=      0.
                    Isotopes and Nuclear Properties:
 (Nuclear quadrupole moments (NQMom) in fm**2, nuclear magnetic moments (NMagM)
  in nuclear magnetons)

  Atom         1           2           3           4           5           6           7           8           9          10
 IAtWgt=          12          12          12          14          12          12          12          12          16          12
 AtmWgt=  12.0000000  12.0000000  12.0000000  14.0030740  12.0000000  12.0000000  12.0000000  12.0000000  15.9949146  12.0000000
 NucSpn=           0           0           0           2           0           0           0           0           0           0
 AtZEff=   3.6000000   3.6000000   3.6000000   4.5500000   3.6000000   3.6000000   3.6000000   3.6000000   5.6000000   3.6000000
 NQMom=    0.0000000   0.0000000   0.0000000   2.0440000   0.0000000   0.0000000   0.0000000   0.0000000   0.0000000   0.0000000
 NMagM=    0.0000000   0.0000000   0.0000000   0.4037610   0.0000000   0.0000000   0.0000000   0.0000000   0.0000000   0.0000000
 AtZNuc=   6.0000000   6.0000000   6.0000000   7.0000000   6.0000000   6.0000000   6.0000000   6.0000000   8.0000000   6.0000000

  Atom        11          12          13          14          15          16          17          18          19          20
 IAtWgt=          12           1           1           1           1           1           1           1           1           1
 AtmWgt=  12.0000000   1.0078250   1.0078250   1.0078250   1.0078250   1.0078250   1.0078250   1.0078250   1.0078250   1.0078250
 NucSpn=           0           1           1           1           1           1           1           1           1           1
 AtZEff=   3.6000000   1.0000000   1.0000000   1.0000000   1.0000000   1.0000000   1.0000000   1.0000000   1.0000000   1.0000000
 NQMom=    0.0000000   0.0000000   0.0000000   0.0000000   0.0000000   0.0000000   0.0000000   0.0000000   0.0000000   0.0000000
 NMagM=    0.0000000   2.7928460   2.7928460   2.7928460   2.7928460   2.7928460   2.7928460   2.7928460   2.7928460   2.7928460
 AtZNuc=   6.0000000   1.0000000   1.0000000   1.0000000   1.0000000   1.0000000   1.0000000   1.0000000   1.0000000   1.0000000

  Atom        21          22          23          24          25          26          27          28          29
 IAtWgt=           1           1           1           1           1           1           1           1           1
 AtmWgt=   1.0078250   1.0078250   1.0078250   1.0078250   1.0078250   1.0078250   1.0078250   1.0078250   1.0078250
 NucSpn=           1           1           1           1           1           1           1           1           1
 AtZEff=   1.0000000   1.0000000   1.0000000   1.0000000   1.0000000   1.0000000   1.0000000   1.0000000   1.0000000
 NQMom=    0.0000000   0.0000000   0.0000000   0.0000000   0.0000000   0.0000000   0.0000000   0.0000000   0.0000000
 NMagM=    2.7928460   2.7928460   2.7928460   2.7928460   2.7928460   2.7928460   2.7928460   2.7928460   2.7928460
 AtZNuc=   1.0000000   1.0000000   1.0000000   1.0000000   1.0000000   1.0000000   1.0000000   1.0000000   1.0000000
 Leave Link  101 at Wed Feb 28 21:11:56 2024, MaxMem=  2147483648 cpu:               8.6 elap:               0.3
 (Enter /software/gaussian-16RevA.03-el7-x86_64/g16/l103.exe)

 GradGradGradGradGradGradGradGradGradGradGradGradGradGradGradGradGradGrad
 Berny optimization.
 Initialization pass.
                           ----------------------------
                           !    Initial Parameters    !
                           ! (Angstroms and Degrees)  !
 --------------------------                            --------------------------
 ! Name  Definition              Value          Derivative Info.                !
 --------------------------------------------------------------------------------
 ! R1    R(1,2)                  1.5229         calculate D2E/DX2 analytically  !
 ! R2    R(1,6)                  1.5229         calculate D2E/DX2 analytically  !
 ! R3    R(1,12)                 1.1029         calculate D2E/DX2 analytically  !
 ! R4    R(1,13)                 1.1041         calculate D2E/DX2 analytically  !
 ! R5    R(2,3)                  1.5368         calculate D2E/DX2 analytically  !
 ! R6    R(2,14)                 1.1036         calculate D2E/DX2 analytically  !
 ! R7    R(2,15)                 1.1055         calculate D2E/DX2 analytically  !
 ! R8    R(3,4)                  1.4908         calculate D2E/DX2 analytically  !
 ! R9    R(3,10)                 1.5381         calculate D2E/DX2 analytically  !
 ! R10   R(3,11)                 1.5321         calculate D2E/DX2 analytically  !
 ! R11   R(4,5)                  1.4908         calculate D2E/DX2 analytically  !
 ! R12   R(4,9)                  1.2669         calculate D2E/DX2 analytically  !
 ! R13   R(5,6)                  1.5368         calculate D2E/DX2 analytically  !
 ! R14   R(5,7)                  1.5381         calculate D2E/DX2 analytically  !
 ! R15   R(5,8)                  1.5321         calculate D2E/DX2 analytically  !
 ! R16   R(6,16)                 1.1055         calculate D2E/DX2 analytically  !
 ! R17   R(6,17)                 1.1036         calculate D2E/DX2 analytically  !
 ! R18   R(7,18)                 1.1023         calculate D2E/DX2 analytically  !
 ! R19   R(7,19)                 1.1033         calculate D2E/DX2 analytically  !
 ! R20   R(7,20)                 1.1017         calculate D2E/DX2 analytically  !
 ! R21   R(8,21)                 1.1033         calculate D2E/DX2 analytically  !
 ! R22   R(8,22)                 1.1032         calculate D2E/DX2 analytically  !
 ! R23   R(8,23)                 1.1            calculate D2E/DX2 analytically  !
 ! R24   R(10,24)                1.1033         calculate D2E/DX2 analytically  !
 ! R25   R(10,25)                1.1023         calculate D2E/DX2 analytically  !
 ! R26   R(10,26)                1.1017         calculate D2E/DX2 analytically  !
 ! R27   R(11,27)                1.1033         calculate D2E/DX2 analytically  !
 ! R28   R(11,28)                1.1            calculate D2E/DX2 analytically  !
 ! R29   R(11,29)                1.1032         calculate D2E/DX2 analytically  !
 ! A1    A(2,1,6)              109.0187         calculate D2E/DX2 analytically  !
 ! A2    A(2,1,12)             109.7821         calculate D2E/DX2 analytically  !
 ! A3    A(2,1,13)             110.9607         calculate D2E/DX2 analytically  !
 ! A4    A(6,1,12)             109.7821         calculate D2E/DX2 analytically  !
 ! A5    A(6,1,13)             110.9607         calculate D2E/DX2 analytically  !
 ! A6    A(12,1,13)            106.305          calculate D2E/DX2 analytically  !
 ! A7    A(1,2,3)              113.577          calculate D2E/DX2 analytically  !
 ! A8    A(1,2,14)             111.1494         calculate D2E/DX2 analytically  !
 ! A9    A(1,2,15)             108.4724         calculate D2E/DX2 analytically  !
 ! A10   A(3,2,14)             108.0067         calculate D2E/DX2 analytically  !
 ! A11   A(3,2,15)             108.6574         calculate D2E/DX2 analytically  !
 ! A12   A(14,2,15)            106.7325         calculate D2E/DX2 analytically  !
 ! A13   A(2,3,4)              110.2771         calculate D2E/DX2 analytically  !
 ! A14   A(2,3,10)             111.4053         calculate D2E/DX2 analytically  !
 ! A15   A(2,3,11)             109.1894         calculate D2E/DX2 analytically  !
 ! A16   A(4,3,10)             109.0992         calculate D2E/DX2 analytically  !
 ! A17   A(4,3,11)             107.4764         calculate D2E/DX2 analytically  !
 ! A18   A(10,3,11)            109.3055         calculate D2E/DX2 analytically  !
 ! A19   A(3,4,5)              124.3748         calculate D2E/DX2 analytically  !
 ! A20   A(3,4,9)              116.1541         calculate D2E/DX2 analytically  !
 ! A21   A(5,4,9)              116.1541         calculate D2E/DX2 analytically  !
 ! A22   A(4,5,6)              110.2771         calculate D2E/DX2 analytically  !
 ! A23   A(4,5,7)              109.0992         calculate D2E/DX2 analytically  !
 ! A24   A(4,5,8)              107.4764         calculate D2E/DX2 analytically  !
 ! A25   A(6,5,7)              111.4053         calculate D2E/DX2 analytically  !
 ! A26   A(6,5,8)              109.1894         calculate D2E/DX2 analytically  !
 ! A27   A(7,5,8)              109.3055         calculate D2E/DX2 analytically  !
 ! A28   A(1,6,5)              113.5771         calculate D2E/DX2 analytically  !
 ! A29   A(1,6,16)             108.4725         calculate D2E/DX2 analytically  !
 ! A30   A(1,6,17)             111.1494         calculate D2E/DX2 analytically  !
 ! A31   A(5,6,16)             108.6574         calculate D2E/DX2 analytically  !
 ! A32   A(5,6,17)             108.0067         calculate D2E/DX2 analytically  !
 ! A33   A(16,6,17)            106.7325         calculate D2E/DX2 analytically  !
 ! A34   A(5,7,18)             109.6587         calculate D2E/DX2 analytically  !
 ! A35   A(5,7,19)             109.857          calculate D2E/DX2 analytically  !
 ! A36   A(5,7,20)             112.3791         calculate D2E/DX2 analytically  !
 ! A37   A(18,7,19)            108.5649         calculate D2E/DX2 analytically  !
 ! A38   A(18,7,20)            108.4002         calculate D2E/DX2 analytically  !
 ! A39   A(19,7,20)            107.8878         calculate D2E/DX2 analytically  !
 ! A40   A(5,8,21)             110.5531         calculate D2E/DX2 analytically  !
 ! A41   A(5,8,22)             109.3204         calculate D2E/DX2 analytically  !
 ! A42   A(5,8,23)             111.2429         calculate D2E/DX2 analytically  !
 ! A43   A(21,8,22)            108.4134         calculate D2E/DX2 analytically  !
 ! A44   A(21,8,23)            108.4713         calculate D2E/DX2 analytically  !
 ! A45   A(22,8,23)            108.7751         calculate D2E/DX2 analytically  !
 ! A46   A(3,10,24)            109.8571         calculate D2E/DX2 analytically  !
 ! A47   A(3,10,25)            109.6587         calculate D2E/DX2 analytically  !
 ! A48   A(3,10,26)            112.3791         calculate D2E/DX2 analytically  !
 ! A49   A(24,10,25)           108.5649         calculate D2E/DX2 analytically  !
 ! A50   A(24,10,26)           107.8878         calculate D2E/DX2 analytically  !
 ! A51   A(25,10,26)           108.4002         calculate D2E/DX2 analytically  !
 ! A52   A(3,11,27)            110.5531         calculate D2E/DX2 analytically  !
 ! A53   A(3,11,28)            111.2429         calculate D2E/DX2 analytically  !
 ! A54   A(3,11,29)            109.3204         calculate D2E/DX2 analytically  !
 ! A55   A(27,11,28)           108.4713         calculate D2E/DX2 analytically  !
 ! A56   A(27,11,29)           108.4135         calculate D2E/DX2 analytically  !
 ! A57   A(28,11,29)           108.7751         calculate D2E/DX2 analytically  !
 ! D1    D(6,1,2,3)             58.9398         calculate D2E/DX2 analytically  !
 ! D2    D(6,1,2,14)          -179.0228         calculate D2E/DX2 analytically  !
 ! D3    D(6,1,2,15)           -61.9771         calculate D2E/DX2 analytically  !
 ! D4    D(12,1,2,3)           179.2321         calculate D2E/DX2 analytically  !
 ! D5    D(12,1,2,14)          -58.7305         calculate D2E/DX2 analytically  !
 ! D6    D(12,1,2,15)           58.3152         calculate D2E/DX2 analytically  !
 ! D7    D(13,1,2,3)           -63.5561         calculate D2E/DX2 analytically  !
 ! D8    D(13,1,2,14)           58.4813         calculate D2E/DX2 analytically  !
 ! D9    D(13,1,2,15)          175.527          calculate D2E/DX2 analytically  !
 ! D10   D(2,1,6,5)            -58.9398         calculate D2E/DX2 analytically  !
 ! D11   D(2,1,6,16)            61.9771         calculate D2E/DX2 analytically  !
 ! D12   D(2,1,6,17)           179.0228         calculate D2E/DX2 analytically  !
 ! D13   D(12,1,6,5)          -179.2322         calculate D2E/DX2 analytically  !
 ! D14   D(12,1,6,16)          -58.3152         calculate D2E/DX2 analytically  !
 ! D15   D(12,1,6,17)           58.7305         calculate D2E/DX2 analytically  !
 ! D16   D(13,1,6,5)            63.556          calculate D2E/DX2 analytically  !
 ! D17   D(13,1,6,16)         -175.527          calculate D2E/DX2 analytically  !
 ! D18   D(13,1,6,17)          -58.4813         calculate D2E/DX2 analytically  !
 ! D19   D(1,2,3,4)            -45.4873         calculate D2E/DX2 analytically  !
 ! D20   D(1,2,3,10)            75.8111         calculate D2E/DX2 analytically  !
 ! D21   D(1,2,3,11)          -163.3639         calculate D2E/DX2 analytically  !
 ! D22   D(14,2,3,4)          -169.2525         calculate D2E/DX2 analytically  !
 ! D23   D(14,2,3,10)          -47.9542         calculate D2E/DX2 analytically  !
 ! D24   D(14,2,3,11)           72.8708         calculate D2E/DX2 analytically  !
 ! D25   D(15,2,3,4)            75.3258         calculate D2E/DX2 analytically  !
 ! D26   D(15,2,3,10)         -163.3759         calculate D2E/DX2 analytically  !
 ! D27   D(15,2,3,11)          -42.5509         calculate D2E/DX2 analytically  !
 ! D28   D(2,3,4,5)             35.1943         calculate D2E/DX2 analytically  !
 ! D29   D(2,3,4,9)           -166.2307         calculate D2E/DX2 analytically  !
 ! D30   D(10,3,4,5)           -87.4669         calculate D2E/DX2 analytically  !
 ! D31   D(10,3,4,9)            71.1081         calculate D2E/DX2 analytically  !
 ! D32   D(11,3,4,5)           154.1207         calculate D2E/DX2 analytically  !
 ! D33   D(11,3,4,9)           -47.3043         calculate D2E/DX2 analytically  !
 ! D34   D(2,3,10,24)           67.9684         calculate D2E/DX2 analytically  !
 ! D35   D(2,3,10,25)         -172.7913         calculate D2E/DX2 analytically  !
 ! D36   D(2,3,10,26)          -52.1554         calculate D2E/DX2 analytically  !
 ! D37   D(4,3,10,24)         -170.0492         calculate D2E/DX2 analytically  !
 ! D38   D(4,3,10,25)          -50.8089         calculate D2E/DX2 analytically  !
 ! D39   D(4,3,10,26)           69.827          calculate D2E/DX2 analytically  !
 ! D40   D(11,3,10,24)         -52.7885         calculate D2E/DX2 analytically  !
 ! D41   D(11,3,10,25)          66.4518         calculate D2E/DX2 analytically  !
 ! D42   D(11,3,10,26)        -172.9124         calculate D2E/DX2 analytically  !
 ! D43   D(2,3,11,27)           63.9008         calculate D2E/DX2 analytically  !
 ! D44   D(2,3,11,28)         -175.5161         calculate D2E/DX2 analytically  !
 ! D45   D(2,3,11,29)          -55.3695         calculate D2E/DX2 analytically  !
 ! D46   D(4,3,11,27)          -55.7217         calculate D2E/DX2 analytically  !
 ! D47   D(4,3,11,28)           64.8614         calculate D2E/DX2 analytically  !
 ! D48   D(4,3,11,29)         -174.9919         calculate D2E/DX2 analytically  !
 ! D49   D(10,3,11,27)        -174.0009         calculate D2E/DX2 analytically  !
 ! D50   D(10,3,11,28)         -53.4178         calculate D2E/DX2 analytically  !
 ! D51   D(10,3,11,29)          66.7288         calculate D2E/DX2 analytically  !
 ! D52   D(3,4,5,6)            -35.1943         calculate D2E/DX2 analytically  !
 ! D53   D(3,4,5,7)             87.4668         calculate D2E/DX2 analytically  !
 ! D54   D(3,4,5,8)           -154.1208         calculate D2E/DX2 analytically  !
 ! D55   D(9,4,5,6)            166.2307         calculate D2E/DX2 analytically  !
 ! D56   D(9,4,5,7)            -71.1081         calculate D2E/DX2 analytically  !
 ! D57   D(9,4,5,8)             47.3043         calculate D2E/DX2 analytically  !
 ! D58   D(4,5,6,1)             45.4873         calculate D2E/DX2 analytically  !
 ! D59   D(4,5,6,16)           -75.3257         calculate D2E/DX2 analytically  !
 ! D60   D(4,5,6,17)           169.2526         calculate D2E/DX2 analytically  !
 ! D61   D(7,5,6,1)            -75.8111         calculate D2E/DX2 analytically  !
 ! D62   D(7,5,6,16)           163.3759         calculate D2E/DX2 analytically  !
 ! D63   D(7,5,6,17)            47.9542         calculate D2E/DX2 analytically  !
 ! D64   D(8,5,6,1)            163.364          calculate D2E/DX2 analytically  !
 ! D65   D(8,5,6,16)            42.5509         calculate D2E/DX2 analytically  !
 ! D66   D(8,5,6,17)           -72.8708         calculate D2E/DX2 analytically  !
 ! D67   D(4,5,7,18)            50.8089         calculate D2E/DX2 analytically  !
 ! D68   D(4,5,7,19)           170.0492         calculate D2E/DX2 analytically  !
 ! D69   D(4,5,7,20)           -69.827          calculate D2E/DX2 analytically  !
 ! D70   D(6,5,7,18)           172.7913         calculate D2E/DX2 analytically  !
 ! D71   D(6,5,7,19)           -67.9684         calculate D2E/DX2 analytically  !
 ! D72   D(6,5,7,20)            52.1554         calculate D2E/DX2 analytically  !
 ! D73   D(8,5,7,18)           -66.4518         calculate D2E/DX2 analytically  !
 ! D74   D(8,5,7,19)            52.7885         calculate D2E/DX2 analytically  !
 ! D75   D(8,5,7,20)           172.9123         calculate D2E/DX2 analytically  !
 ! D76   D(4,5,8,21)            55.7216         calculate D2E/DX2 analytically  !
 ! D77   D(4,5,8,22)           174.9919         calculate D2E/DX2 analytically  !
 ! D78   D(4,5,8,23)           -64.8615         calculate D2E/DX2 analytically  !
 ! D79   D(6,5,8,21)           -63.9008         calculate D2E/DX2 analytically  !
 ! D80   D(6,5,8,22)            55.3695         calculate D2E/DX2 analytically  !
 ! D81   D(6,5,8,23)           175.5161         calculate D2E/DX2 analytically  !
 ! D82   D(7,5,8,21)           174.0009         calculate D2E/DX2 analytically  !
 ! D83   D(7,5,8,22)           -66.7288         calculate D2E/DX2 analytically  !
 ! D84   D(7,5,8,23)            53.4178         calculate D2E/DX2 analytically  !
 --------------------------------------------------------------------------------
 Trust Radius=3.00D-01 FncErr=1.00D-07 GrdErr=1.00D-07 EigMax=2.50D+02 EigMin=1.00D-04
 Number of steps in this run=      2 maximum allowed number of steps=      2.
 Step   0 in ReCalcFC=50 IGetFC= 4 compute analytic Hessian.
 GradGradGradGradGradGradGradGradGradGradGradGradGradGradGradGradGradGrad

 Leave Link  103 at Wed Feb 28 21:11:56 2024, MaxMem=  2147483648 cpu:               0.6 elap:               0.0
 (Enter /software/gaussian-16RevA.03-el7-x86_64/g16/l202.exe)
                          Input orientation:                          
 ---------------------------------------------------------------------
 Center     Atomic      Atomic             Coordinates (Angstroms)
 Number     Number       Type             X           Y           Z
 ---------------------------------------------------------------------
      1          6           0        0.000057    2.119337   -0.001270
      2          6           0       -1.239913    1.385366   -0.494216
      3          6           0       -1.318536   -0.074820   -0.021385
      4          7           0        0.000006   -0.747232   -0.199421
      5          6           0        1.318567   -0.074870   -0.021343
      6          6           0        1.240014    1.385319   -0.494176
      7          6           0        1.733702   -0.164659    1.456937
      8          6           0        2.338975   -0.828250   -0.880656
      9          8           0       -0.000020   -2.010571   -0.104250
     10          6           0       -1.733720   -0.164594    1.456882
     11          6           0       -2.338944   -0.828162   -0.880731
     12          1           0        0.000082    3.152707   -0.386760
     13          1           0        0.000041    2.199288    1.099926
     14          1           0       -2.161592    1.898875   -0.170531
     15          1           0       -1.239087    1.399599   -1.599601
     16          1           0        1.239224    1.399551   -1.599562
     17          1           0        2.161703    1.898793   -0.170463
     18          1           0        1.656119   -1.208964    1.801128
     19          1           0        2.779580    0.166756    1.573278
     20          1           0        1.105208    0.463683    2.108016
     21          1           0        2.005609   -0.868743   -1.931609
     22          1           0        3.307794   -0.301926   -0.842414
     23          1           0        2.480888   -1.857787   -0.520122
     24          1           0       -2.779590    0.166860    1.573191
     25          1           0       -1.656188   -1.208902    1.801075
     26          1           0       -1.105223    0.463724    2.107980
     27          1           0       -2.005546   -0.868666   -1.931673
     28          1           0       -2.480907   -1.857694   -0.520202
     29          1           0       -3.307745   -0.301801   -0.842520
 ---------------------------------------------------------------------
                    Distance matrix (angstroms):
                    1          2          3          4          5
     1  C    0.000000
     2  C    1.522903   0.000000
     3  C    2.559964   1.536845   0.000000
     4  N    2.873409   2.484406   1.490767   0.000000
     5  C    2.559964   2.983574   2.637103   1.490767   0.000000
     6  C    1.522903   2.479927   2.983574   2.484406   1.536845
     7  C    3.216912   3.879685   3.392589   2.467511   1.538086
     8  C    3.864211   4.225857   3.831891   2.437503   1.532068
     9  O    4.131191   3.636178   2.343604   1.266918   2.343605
    10  C    3.216913   2.540276   1.538086   2.467511   3.392589
    11  C    3.864211   2.501393   1.532068   2.437503   3.831890
    12  H    1.102931   2.161627   3.505593   3.904436   3.505593
    13  H    1.104094   2.177439   2.857892   3.220292   2.857892
    14  H    2.179445   1.103611   2.151386   3.416902   4.003678
    15  H    2.146664   1.105477   2.161247   2.846883   3.347619
    16  H    2.146664   2.714427   3.347619   2.846882   2.161247
    17  H    2.179445   3.455346   4.003678   3.416902   2.151386
    18  H    4.131436   4.515103   3.668298   2.637822   2.172904
    19  H    3.743998   4.681438   4.404073   3.421092   2.176180
    20  H    2.900282   3.622250   3.270912   2.830556   2.206746
    21  H    4.083757   4.204821   3.915253   2.652863   2.179765
    22  H    4.184634   4.863109   4.704104   3.399000   2.163963
    23  H    4.716063   4.935896   4.226504   2.736962   2.185993
    24  H    3.743999   2.851233   2.176180   3.421092   4.404073
    25  H    4.131436   3.488821   2.172904   2.637821   3.668297
    26  H    2.900282   2.763872   2.206746   2.830556   3.270911
    27  H    4.083756   2.780852   2.179765   2.652863   3.915253
    28  H    4.716062   3.472489   2.185993   2.736961   4.226503
    29  H    4.184634   2.691427   2.163963   3.399000   4.704104
                    6          7          8          9         10
     6  C    0.000000
     7  C    2.540276   0.000000
     8  C    2.501394   2.504206   0.000000
     9  O    3.636178   2.974976   2.733419   0.000000
    10  C    3.879685   3.467422   4.742506   2.974976   0.000000
    11  C    4.225856   4.742507   4.677919   2.733419   2.504206
    12  H    2.161627   4.172478   4.643530   5.171001   4.172478
    13  H    2.177439   2.953181   4.308051   4.378693   2.953182
    14  H    3.455345   4.698951   5.310046   4.467724   2.662602
    15  H    2.714427   4.541674   4.275830   3.924362   3.468926
    16  H    1.105477   3.468926   2.586383   3.924362   4.541674
    17  H    1.103611   2.662602   2.823573   4.467724   4.698951
    18  H    3.488821   1.102298   2.793421   2.648742   3.563738
    19  H    2.851233   1.103283   2.684393   3.909095   4.526944
    20  H    2.763872   1.101690   3.481872   3.498225   2.979634
    21  H    2.780853   3.471586   1.103302   2.943732   5.095123
    22  H    2.691427   2.789915   1.103219   3.795522   5.542787
    23  H    3.472489   2.708087   1.100032   2.520158   4.953622
    24  H    4.681438   4.526944   5.762925   3.909095   1.103283
    25  H    4.515102   3.563738   4.826790   2.648741   1.102298
    26  H    3.622250   2.979634   4.739583   3.498224   1.101690
    27  H    4.204820   5.095123   4.470026   2.943732   3.471586
    28  H    4.935896   4.953622   4.941755   2.520157   2.708087
    29  H    4.863109   5.542787   5.671335   3.795521   2.789915
                   11         12         13         14         15
    11  C    0.000000
    12  H    4.643530   0.000000
    13  H    4.308051   1.766138   0.000000
    14  H    2.823573   2.508324   2.525266   0.000000
    15  H    2.586383   2.465748   3.076099   1.772719   0.000000
    16  H    4.275829   2.465748   3.076100   3.722500   2.478312
    17  H    5.310046   2.508324   2.525266   4.323295   3.722500
    18  H    4.826791   5.153008   3.853629   5.302926   5.172213
    19  H    5.762925   4.525844   3.475786   5.518722   5.266570
    20  H    4.739583   3.830935   2.291280   4.233619   4.485319
    21  H    4.470026   4.751921   4.756608   5.303458   3.972865
    22  H    5.671335   4.804484   4.579300   5.933729   4.913517
    23  H    4.941756   5.592606   5.023845   5.982253   5.061033
    24  H    2.684393   4.525845   3.475786   2.534238   3.736228
    25  H    2.793421   5.153008   3.853630   3.714962   4.306141
    26  H    3.481872   3.830935   2.291280   2.892609   3.826218
    27  H    1.103302   4.751920   4.756607   3.284091   2.417179
    28  H    1.100032   5.592605   5.023845   3.786296   3.649270
    29  H    1.103219   4.804484   4.579300   2.570644   2.783393
                   16         17         18         19         20
    16  H    0.000000
    17  H    1.772719   0.000000
    18  H    4.306141   3.714961   0.000000
    19  H    3.736228   2.534237   1.790722   0.000000
    20  H    3.826218   2.892609   1.787577   1.782591   0.000000
    21  H    2.417180   3.284092   3.764468   3.735709   4.347947
    22  H    2.783393   2.570643   3.246393   2.516792   3.760662
    23  H    3.649271   3.786296   2.547434   2.927510   3.766806
    24  H    5.266570   5.518722   4.649770   5.559170   3.932658
    25  H    5.172212   5.302926   3.312307   4.649770   3.243002
    26  H    4.485318   4.233619   3.243001   3.932657   2.210431
    27  H    3.972864   5.303457   5.239981   6.021148   5.269823
    28  H    5.061032   5.982252   4.787945   6.012802   5.015630
    29  H    4.913517   5.933729   5.696645   6.565908   5.363374
                   21         22         23         24         25
    21  H    0.000000
    22  H    1.789780   0.000000
    23  H    1.787846   1.791187   0.000000
    24  H    6.021148   6.565908   6.012802   0.000000
    25  H    5.239980   5.696645   4.787944   1.790722   0.000000
    26  H    5.269822   5.363373   5.015629   1.782591   1.787577
    27  H    4.011155   5.453372   4.806135   3.735710   3.764468
    28  H    4.806134   6.002774   4.961795   2.927511   2.547434
    29  H    5.453372   6.615539   6.002775   2.516793   3.246393
                   26         27         28         29
    26  H    0.000000
    27  H    4.347947   0.000000
    28  H    3.766806   1.787846   0.000000
    29  H    3.760662   1.789780   1.791187   0.000000
 Symmetry turned off by external request.
 Stoichiometry    C9H18NO(2)
 Framework group  C1[X(C9H18NO)]
 Deg. of freedom    81
 Full point group                 C1      NOp   1
 Rotational constants (GHZ):           1.4844273           1.0675155           0.8588290
 Leave Link  202 at Wed Feb 28 21:11:56 2024, MaxMem=  2147483648 cpu:               2.3 elap:               0.1
 (Enter /software/gaussian-16RevA.03-el7-x86_64/g16/l301.exe)
 Standard basis: def2SVPP (5D, 7F)
 Ernie: Thresh=  0.10000D-02 Tol=  0.10000D-05 Strict=F.
   190 basis functions,   347 primitive gaussians,   201 cartesian basis functions
    44 alpha electrons       43 beta electrons
       nuclear repulsion energy       716.4616937866 Hartrees.
 IExCor= 4639 DFT=T Ex+Corr=wB97XD ExCW=0 ScaHFX=  1.000000
 ScaDFX=  1.000000  1.000000  1.000000  1.000000 ScalE2=  1.000000  1.000000
 IRadAn=      5 IRanWt=     -1 IRanGd=            0 ICorTp=0 IEmpDi=121
 HFx  wShort=  0.000000 wLong=  0.200000 cFull=  0.222036 cShort=  0.000000 cLong=  0.777964
 DFx  wShort=  0.000000 wLong=  0.200000 cFull=  0.000000 cShort=  0.000000 cLong=  1.000000
 NAtoms=   29 NActive=   29 NUniq=   29 SFac= 1.00D+00 NAtFMM=   60 NAOKFM=F Big=F
 Integral buffers will be    131072 words long.
 Raffenetti 2 integral format.
 Two-electron integral symmetry is turned off.
 R6Disp:  Grimme-D2 Dispersion energy=       -0.0257193275 Hartrees.
 Nuclear repulsion after empirical dispersion term =      716.4359744591 Hartrees.
 Force inversion solution in PCM.
 ------------------------------------------------------------------------------
 Polarizable Continuum Model (PCM)
 =================================
 Model                : PCM.
 Atomic radii         : UFF (Universal Force Field).
 Polarization charges : Total charges.
 Charge compensation  : None.
 Solution method      : Matrix inversion.
 Cavity type          : Scaled VdW (van der Waals Surface) (Alpha=1.100).
 Cavity algorithm     : GePol (No added spheres)
                        Default sphere list used, NSphG=   29.
                        Lebedev-Laikov grids with approx.  5.0 points / Ang**2.
                        Smoothing algorithm: York/Karplus (Gamma=1.0000).
                        Polarization charges: spherical gaussians, with
                                              point-specific exponents (IZeta= 3).
                        Self-potential: point-specific (ISelfS= 7).
                        Self-field    : sphere-specific E.n sum rule (ISelfD= 2).
 1st derivatives      : Analytical E(r).r(x)/FMM algorithm (CHGder, D1EAlg=3).
                        Cavity 1st derivative terms included.
 2nd derivatives      : Analytical E(r).r(xy)/FMM algorithm (CHGder, D2EAlg=3).
                        Cavity 2nd derivative terms included.
 Solvent              : TetraHydroFuran, Eps=   7.425700 Eps(inf)=   1.974025
 ------------------------------------------------------------------------------
 GePol: Number of generator spheres                  =      29
 GePol: Total number of spheres                      =      29
 GePol: Number of exposed spheres                    =      29 (100.00%)
 GePol: Number of points                             =    1749
 GePol: Average weight of points                     =       0.14
 GePol: Minimum weight of points                     =   0.54D-10
 GePol: Maximum weight of points                     =    0.20577
 GePol: Number of points with low weight             =      98
 GePol: Fraction of low-weight points (<1% of avg)   =       5.60%
 GePol: Cavity surface area                          =    236.610 Ang**2
 GePol: Cavity volume                                =    256.581 Ang**3
 Leave Link  301 at Wed Feb 28 21:11:57 2024, MaxMem=  2147483648 cpu:               2.2 elap:               0.1
 (Enter /software/gaussian-16RevA.03-el7-x86_64/g16/l302.exe)
 NPDir=0 NMtPBC=     1 NCelOv=     1 NCel=       1 NClECP=     1 NCelD=      1
         NCelK=      1 NCelE2=     1 NClLst=     1 CellRange=     0.0.
 One-electron integrals computed using PRISM.
   1 Symmetry operations used in ECPInt.
 ECPInt:  NShTT=    5253 NPrTT=   21107 LenC2=    5228 LenP2D=   16397.
 LDataN:  DoStor=T MaxTD1= 4 Len=   56
 NBasis=   190 RedAO= T EigKep=  1.01D-03  NBF=   190
 NBsUse=   190 1.00D-06 EigRej= -1.00D+00 NBFU=   190
 Precomputing XC quadrature grid using
 IXCGrd= 4 IRadAn=           5 IRanWt=          -1 IRanGd=           0 AccXCQ= 0.00D+00.
 Generated NRdTot=       0 NPtTot=           0 NUsed=           0 NTot=          32
 NSgBfM=   201   201   201   201   201 MxSgAt=    29 MxSgA2=    29.
 Leave Link  302 at Wed Feb 28 21:11:57 2024, MaxMem=  2147483648 cpu:               7.4 elap:               0.3
 (Enter /software/gaussian-16RevA.03-el7-x86_64/g16/l303.exe)
 DipDrv:  MaxL=1.
 Leave Link  303 at Wed Feb 28 21:11:57 2024, MaxMem=  2147483648 cpu:               1.0 elap:               0.1
 (Enter /software/gaussian-16RevA.03-el7-x86_64/g16/l401.exe)
 Initial guess from the checkpoint file:  "TEMPO-cavity-in-THF-wB97XD.chk"
 B after Tr=     0.000000    0.000000    0.000000
         Rot=    1.000000    0.000000    0.000000    0.000000 Ang=   0.00 deg.
 Guess basis will be translated and rotated to current coordinates.
 JPrj=2 DoOrth=T DoCkMO=T.
 Initial guess <Sx>= 0.0000 <Sy>= 0.0000 <Sz>= 0.5000 <S**2>= 0.7539 S= 0.5020
 Leave Link  401 at Wed Feb 28 21:11:57 2024, MaxMem=  2147483648 cpu:               4.1 elap:               0.2
 (Enter /software/gaussian-16RevA.03-el7-x86_64/g16/l502.exe)
 Two-electron integral symmetry not used.
 UHF open shell SCF:
 Using DIIS extrapolation, IDIIS=  1040.
 NGot=  2147483648 LenX=  2147395142 LenY=  2147354300
 Requested convergence on RMS density matrix=1.00D-08 within  32 cycles.
 Requested convergence on MAX density matrix=1.00D-06.
 Requested convergence on             energy=1.00D-06.
 No special actions if energy rises.
 Fock matrices will be formed incrementally for  20 cycles.

 Cycle   1  Pass 1  IDiag  1:
 FoFJK:  IHMeth= 1 ICntrl=       0 DoSepK=T KAlg= 0 I1Cent=           0 FoldK=F
 IRaf=         1 NMat=       1 IRICut=       1 DoRegI=T DoRafI=F ISym2E= 0 IDoP0=0 IntGTp=1.
 FoFCou: FMM=F IPFlag=           0 FMFlag=      100000 FMFlg1=           0
         NFxFlg=           0 DoJE=T BraDBF=F KetDBF=F FulRan=T
         wScrn=  0.000000 ICntrl=       500 IOpCl=  0 I1Cent=           0 NGrid=           0
         NMat0=    1 NMatS0=      1 NMatT0=    0 NMatD0=    1 NMtDS0=    0 NMtDT0=    0
 Symmetry not used in FoFCou.
 Inv3:  Mode=1 IEnd=     9177003.
 Iteration    1 A*A^-1 deviation from unit magnitude is 3.11D-15 for    200.
 Iteration    1 A*A^-1 deviation from orthogonality  is 2.44D-15 for   1466    399.
 Iteration    1 A^-1*A deviation from unit magnitude is 2.66D-15 for    235.
 Iteration    1 A^-1*A deviation from orthogonality  is 2.04D-15 for   1696    721.
 E= -483.204960005754    
 DIIS: error= 1.06D-08 at cycle   1 NSaved=   1.
 NSaved= 1 IEnMin= 1 EnMin= -483.204960005754     IErMin= 1 ErrMin= 1.06D-08
 ErrMax= 1.06D-08  0.00D+00 EMaxC= 1.00D-01 BMatC= 3.71D-14 BMatP= 3.71D-14
 IDIUse=1 WtCom= 1.00D+00 WtEn= 0.00D+00
 Coeff-Com:  0.100D+01
 Coeff:      0.100D+01
 Gap=     0.399 Goal=   None    Shift=    0.000
 Gap=     0.352 Goal=   None    Shift=    0.000
 RMSDP=1.30D-09 MaxDP=4.08D-08              OVMax= 8.51D-08

 Error on total polarization charges =  0.00828
 SCF Done:  E(UwB97XD) =  -483.204960006     A.U. after    1 cycles
            NFock=  1  Conv=0.13D-08     -V/T= 2.0105
 <Sx>= 0.0000 <Sy>= 0.0000 <Sz>= 0.5000 <S**2>= 0.7539 S= 0.5020
 <L.S>=  0.00000000000    
 KE= 4.781680195370D+02 PE=-2.553785832640D+03 EE= 8.759768786382D+02
 Annihilation of the first spin contaminant:
 S**2 before annihilation     0.7539,   after     0.7500
 Leave Link  502 at Wed Feb 28 21:12:00 2024, MaxMem=  2147483648 cpu:              81.9 elap:               3.2
 (Enter /software/gaussian-16RevA.03-el7-x86_64/g16/l508.exe)
 QCSCF skips out because SCF is already converged.
 Leave Link  508 at Wed Feb 28 21:12:00 2024, MaxMem=  2147483648 cpu:               0.5 elap:               0.0
 (Enter /software/gaussian-16RevA.03-el7-x86_64/g16/l801.exe)
 DoSCS=F DFT=T ScalE2(SS,OS)=  1.000000  1.000000
 Range of M.O.s used for correlation:     1   190
 NBasis=   190 NAE=    44 NBE=    43 NFC=     0 NFV=     0
 NROrb=    190 NOA=    44 NOB=    43 NVA=   146 NVB=   147
 Leave Link  801 at Wed Feb 28 21:12:00 2024, MaxMem=  2147483648 cpu:               0.7 elap:               0.1
 (Enter /software/gaussian-16RevA.03-el7-x86_64/g16/l1101.exe)
 Using compressed storage, NAtomX=    29.
 Will process     30 centers per pass.
   1 Symmetry operations used in ECPInt.
 ECPInt:  NShTT=    5253 NPrTT=   21107 LenC2=    5228 LenP2D=   16397.
 LDataN:  DoStor=T MaxTD1= 5 Len=  102
 R6Disp: Adding Grimme-D2 dispersion energy 1st derivatives to the gradient.
 Leave Link 1101 at Wed Feb 28 21:12:01 2024, MaxMem=  2147483648 cpu:              11.5 elap:               0.5
 (Enter /software/gaussian-16RevA.03-el7-x86_64/g16/l1102.exe)
 Symmetrizing basis deriv contribution to polar:
 IMax=3 JMax=2 DiffMx= 0.00D+00
 Leave Link 1102 at Wed Feb 28 21:12:01 2024, MaxMem=  2147483648 cpu:               1.1 elap:               0.1
 (Enter /software/gaussian-16RevA.03-el7-x86_64/g16/l1110.exe)
 Forming Gx(P) for the SCF density, NAtomX=    29.
 Integral derivatives from FoFJK, PRISM(SPDF).
 Do as many integral derivatives as possible in FoFJK.
 G2DrvN: MDV=    2147481424.
 G2DrvN: will do    30 centers at a time, making    1 passes.
 Calling FoFCou, ICntrl=  3107 FMM=F I1Cent=   0 AccDes= 0.00D+00.
 FoFJK:  IHMeth= 1 ICntrl=    3107 DoSepK=T KAlg= 0 I1Cent=           0 FoldK=F
 IRaf=         1 NMat=       1 IRICut=       1 DoRegI=T DoRafI=F ISym2E= 0 IDoP0=0 IntGTp=1.
 FoFCou: FMM=F IPFlag=           0 FMFlag=      100000 FMFlg1=           0
         NFxFlg=           0 DoJE=F BraDBF=F KetDBF=F FulRan=T
         wScrn=  0.000000 ICntrl=      3507 IOpCl=  0 I1Cent=           0 NGrid=           0
         NMat0=    1 NMatS0=      1 NMatT0=    0 NMatD0=    1 NMtDS0=    0 NMtDT0=    0
 Symmetry not used in FoFCou.
 NEqPCM:  Using equilibrium solvation (IEInf=0, Eps=   7.4257, EpsInf=   1.9740)
 G2PCM: DoFxE=T DoFxN=T DoGrad=T DoDP/DQ/DG/TGxP=FFFF NFrqRd=   0 IEInf=0 SqF1=F DoCFld=F IF1Alg=4.
 GePol: Maximum number of non-zero 1st derivatives   =     166
 End of G2Drv F.D. properties file   721 does not exist.
 End of G2Drv F.D. properties file   722 does not exist.
 End of G2Drv F.D. properties file   788 does not exist.
 Leave Link 1110 at Wed Feb 28 21:12:30 2024, MaxMem=  2147483648 cpu:             817.3 elap:              29.2
 (Enter /software/gaussian-16RevA.03-el7-x86_64/g16/l1002.exe)
 Minotr:  UHF open shell wavefunction.
          IDoAtm=11111111111111111111111111111
 NEqPCM:  Using equilibrium solvation (IEInf=0, Eps=   7.4257, EpsInf=   1.9740)
          Direct CPHF calculation.
          Differentiating once with respect to electric field.
                with respect to dipole field.
          Differentiating once with respect to nuclear coordinates.
          Requested convergence is 1.0D-08 RMS, and 1.0D-07 maximum.
          Secondary convergence is 1.0D-12 RMS, and 1.0D-12 maximum.
          NewPWx=T KeepS1=F KeepF1=F KeepIn=T MapXYZ=F SortEE=F KeepMc=T.
         8643 words used for storage of precomputed grid.
 Keep R1 and R2 ints in memory in canonical form, NReq=687285793.
 FoFCou: FMM=F IPFlag=           0 FMFlag=           0 FMFlg1=           0
         NFxFlg=           0 DoJE=F BraDBF=F KetDBF=F FulRan=T
         wScrn=  0.000000 ICntrl=       600 IOpCl=  0 I1Cent=           0 NGrid=           0
         NMat0=    1 NMatS0=  18145 NMatT0=    0 NMatD0=    1 NMtDS0=    0 NMtDT0=    0
 Symmetry not used in FoFCou.
 Two-electron integral symmetry not used.
          MDV=    2147483648 using IRadAn=       1.
          Solving linear equations simultaneously, MaxMat=       0.
          There are    90 degrees of freedom in the 1st order CPHF.  IDoFFX=6 NUNeed=     3.
     87 vectors produced by pass  0 Test12= 1.42D-14 1.11D-09 XBig12= 7.99D+01 2.42D+00.
 AX will form    87 AO Fock derivatives at one time.
     87 vectors produced by pass  1 Test12= 1.42D-14 1.11D-09 XBig12= 7.08D+00 3.85D-01.
     87 vectors produced by pass  2 Test12= 1.42D-14 1.11D-09 XBig12= 4.57D-01 1.93D-01.
     87 vectors produced by pass  3 Test12= 1.42D-14 1.11D-09 XBig12= 4.75D-03 1.13D-02.
     87 vectors produced by pass  4 Test12= 1.42D-14 1.11D-09 XBig12= 3.62D-05 1.28D-03.
     87 vectors produced by pass  5 Test12= 1.42D-14 1.11D-09 XBig12= 3.15D-07 8.34D-05.
     86 vectors produced by pass  6 Test12= 1.42D-14 1.11D-09 XBig12= 2.91D-09 4.48D-06.
     26 vectors produced by pass  7 Test12= 1.42D-14 1.11D-09 XBig12= 1.68D-11 3.17D-07.
      3 vectors produced by pass  8 Test12= 1.42D-14 1.11D-09 XBig12= 1.34D-13 4.89D-08.
      1 vectors produced by pass  9 Test12= 1.42D-14 1.11D-09 XBig12= 1.01D-15 3.36D-09.
 InvSVY:  IOpt=1 It=  1 EMax= 5.33D-15
 Solved reduced A of dimension   638 with    90 vectors.
 FullF1:  Do perturbations      1 to       3.
 Isotropic polarizability for W=    0.000000      125.29 Bohr**3.
 End of Minotr F.D. properties file   721 does not exist.
 End of Minotr F.D. properties file   722 does not exist.
 End of Minotr F.D. properties file   788 does not exist.
 Leave Link 1002 at Wed Feb 28 21:13:15 2024, MaxMem=  2147483648 cpu:            1223.6 elap:              44.4
 (Enter /software/gaussian-16RevA.03-el7-x86_64/g16/l601.exe)
 Copying SCF densities to generalized density rwf, IOpCl= 1 IROHF=0.

 **********************************************************************

            Population analysis using the SCF density.

 **********************************************************************

 Alpha  occ. eigenvalues --  -19.24924 -14.52703 -10.34295 -10.34289 -10.29343
 Alpha  occ. eigenvalues --  -10.29341 -10.29279 -10.28435 -10.28430 -10.28070
 Alpha  occ. eigenvalues --  -10.28070  -1.19314  -0.96377  -0.91531  -0.86109
 Alpha  occ. eigenvalues --   -0.80893  -0.78566  -0.77516  -0.77094  -0.69088
 Alpha  occ. eigenvalues --   -0.68981  -0.60561  -0.57774  -0.57314  -0.56571
 Alpha  occ. eigenvalues --   -0.55105  -0.53088  -0.51362  -0.51355  -0.49320
 Alpha  occ. eigenvalues --   -0.48915  -0.47381  -0.47357  -0.45801  -0.45454
 Alpha  occ. eigenvalues --   -0.45014  -0.43783  -0.43397  -0.41673  -0.40936
 Alpha  occ. eigenvalues --   -0.40392  -0.39334  -0.33875  -0.27237
 Alpha virt. eigenvalues --    0.12632   0.15432   0.15684   0.16247   0.16706
 Alpha virt. eigenvalues --    0.19154   0.19750   0.21291   0.21626   0.22135
 Alpha virt. eigenvalues --    0.22327   0.22552   0.23441   0.24555   0.25157
 Alpha virt. eigenvalues --    0.25613   0.26163   0.26929   0.27567   0.28272
 Alpha virt. eigenvalues --    0.28482   0.29434   0.30716   0.32216   0.33663
 Alpha virt. eigenvalues --    0.34438   0.35362   0.37331   0.40111   0.47753
 Alpha virt. eigenvalues --    0.48580   0.48952   0.50379   0.52070   0.54082
 Alpha virt. eigenvalues --    0.56356   0.56890   0.61887   0.62028   0.64698
 Alpha virt. eigenvalues --    0.65440   0.67807   0.68271   0.70023   0.71624
 Alpha virt. eigenvalues --    0.72400   0.73420   0.73796   0.74456   0.74902
 Alpha virt. eigenvalues --    0.77217   0.77424   0.77591   0.77838   0.78527
 Alpha virt. eigenvalues --    0.80124   0.80334   0.80510   0.80993   0.81125
 Alpha virt. eigenvalues --    0.81258   0.81555   0.82727   0.84044   0.84342
 Alpha virt. eigenvalues --    0.84561   0.85101   0.85545   0.86381   0.86472
 Alpha virt. eigenvalues --    0.89023   0.91039   0.94769   0.98335   0.98388
 Alpha virt. eigenvalues --    1.04534   1.05282   1.07169   1.11145   1.15383
 Alpha virt. eigenvalues --    1.17009   1.19520   1.23711   1.23850   1.26351
 Alpha virt. eigenvalues --    1.28178   1.32786   1.36023   1.36190   1.46060
 Alpha virt. eigenvalues --    1.51291   1.51539   1.58983   1.61312   1.72077
 Alpha virt. eigenvalues --    1.80990   1.84228   1.84675   1.86924   1.87798
 Alpha virt. eigenvalues --    1.90708   1.91975   1.93171   1.95127   1.97015
 Alpha virt. eigenvalues --    1.99293   1.99304   2.01613   2.06177   2.06589
 Alpha virt. eigenvalues --    2.10077   2.12144   2.13860   2.16266   2.17812
 Alpha virt. eigenvalues --    2.21599   2.23048   2.24672   2.25744   2.26232
 Alpha virt. eigenvalues --    2.27824   2.27959   2.35649   2.35877   2.39436
 Alpha virt. eigenvalues --    2.39711   2.43805   2.44478   2.47294   2.51102
 Alpha virt. eigenvalues --    2.54561   2.61887   2.67458   2.71075   2.73591
 Alpha virt. eigenvalues --    2.75931   2.76186   2.81037   2.81060   2.81636
 Alpha virt. eigenvalues --    2.86217   2.97125   3.08452   3.24574   3.43773
 Alpha virt. eigenvalues --    3.83539
  Beta  occ. eigenvalues --  -19.23685 -14.51713 -10.34335 -10.34328 -10.29337
  Beta  occ. eigenvalues --  -10.29335 -10.29281 -10.28382 -10.28378 -10.28051
  Beta  occ. eigenvalues --  -10.28050  -1.16760  -0.95481  -0.91400  -0.85589
  Beta  occ. eigenvalues --   -0.79452  -0.78360  -0.77404  -0.77067  -0.68846
  Beta  occ. eigenvalues --   -0.68568  -0.59867  -0.57100  -0.57020  -0.55088
  Beta  occ. eigenvalues --   -0.53282  -0.53011  -0.51297  -0.50900  -0.48668
  Beta  occ. eigenvalues --   -0.48495  -0.47266  -0.47006  -0.45217  -0.44961
  Beta  occ. eigenvalues --   -0.44815  -0.43356  -0.41856  -0.41515  -0.40809
  Beta  occ. eigenvalues --   -0.39266  -0.38318  -0.32515
  Beta virt. eigenvalues --    0.02724   0.12681   0.15442   0.15706   0.16486
  Beta virt. eigenvalues --    0.16745   0.19231   0.19837   0.21533   0.21632
  Beta virt. eigenvalues --    0.22156   0.22454   0.22574   0.23679   0.24618
  Beta virt. eigenvalues --    0.25180   0.25770   0.26235   0.27085   0.27844
  Beta virt. eigenvalues --    0.28301   0.28507   0.29935   0.30906   0.32707
  Beta virt. eigenvalues --    0.33686   0.34632   0.35494   0.37680   0.41399
  Beta virt. eigenvalues --    0.47910   0.48592   0.49069   0.50453   0.52140
  Beta virt. eigenvalues --    0.54655   0.56812   0.57029   0.62147   0.62204
  Beta virt. eigenvalues --    0.64934   0.65706   0.67853   0.68449   0.70178
  Beta virt. eigenvalues --    0.71678   0.72413   0.73456   0.73842   0.74626
  Beta virt. eigenvalues --    0.74957   0.77247   0.77515   0.77592   0.77916
  Beta virt. eigenvalues --    0.78603   0.80203   0.80362   0.80649   0.81028
  Beta virt. eigenvalues --    0.81211   0.81300   0.81677   0.82834   0.84075
  Beta virt. eigenvalues --    0.84442   0.84610   0.85207   0.85606   0.86445
  Beta virt. eigenvalues --    0.86517   0.89073   0.91131   0.94802   0.98403
  Beta virt. eigenvalues --    0.98869   1.05080   1.06218   1.08402   1.11419
  Beta virt. eigenvalues --    1.15431   1.18720   1.19719   1.24081   1.25284
  Beta virt. eigenvalues --    1.27065   1.28445   1.33446   1.36302   1.36811
  Beta virt. eigenvalues --    1.46223   1.51641   1.52080   1.59662   1.61618
  Beta virt. eigenvalues --    1.72310   1.81035   1.84664   1.84841   1.87891
  Beta virt. eigenvalues --    1.88107   1.90962   1.92481   1.93327   1.95586
  Beta virt. eigenvalues --    1.97241   1.99326   1.99466   2.01713   2.06260
  Beta virt. eigenvalues --    2.06699   2.10229   2.12203   2.13917   2.16707
  Beta virt. eigenvalues --    2.17896   2.22015   2.23200   2.24747   2.25810
  Beta virt. eigenvalues --    2.26874   2.28081   2.28179   2.36031   2.36407
  Beta virt. eigenvalues --    2.39602   2.39941   2.44270   2.44979   2.47690
  Beta virt. eigenvalues --    2.51858   2.54629   2.62587   2.68406   2.71941
  Beta virt. eigenvalues --    2.74416   2.76758   2.78706   2.81357   2.83053
  Beta virt. eigenvalues --    2.83466   2.86267   2.98490   3.10204   3.28627
  Beta virt. eigenvalues --    3.44684   3.85381
          Condensed to atoms (all electrons):
               1          2          3          4          5          6
     1  C    4.807063   0.403552  -0.047541  -0.009126  -0.047541   0.403552
     2  C    0.403552   4.990139   0.328007  -0.041019   0.004236  -0.068234
     3  C   -0.047541   0.328007   5.109318   0.239221  -0.104179   0.004236
     4  N   -0.009126  -0.041019   0.239221   6.713002   0.239221  -0.041019
     5  C   -0.047541   0.004236  -0.104179   0.239221   5.109318   0.328007
     6  C    0.403552  -0.068234   0.004236  -0.041019   0.328007   4.990139
     7  C   -0.011240   0.001158  -0.005816  -0.059691   0.405025  -0.077200
     8  C    0.010811  -0.002262   0.009723  -0.060764   0.393696  -0.064887
     9  O   -0.000143   0.006465  -0.069037   0.214512  -0.069037   0.006465
    10  C   -0.011240  -0.077200   0.405025  -0.059691  -0.005816   0.001158
    11  C    0.010811  -0.064887   0.393696  -0.060764   0.009723  -0.002262
    12  H    0.367076  -0.015612   0.007205   0.000024   0.007205  -0.015612
    13  H    0.375974  -0.026896  -0.006131  -0.002453  -0.006131  -0.026896
    14  H   -0.015545   0.360350  -0.015640   0.004708  -0.000255   0.008156
    15  H   -0.027571   0.358335  -0.014575  -0.002235  -0.004110  -0.000357
    16  H   -0.027571  -0.000357  -0.004110  -0.002235  -0.014575   0.358335
    17  H   -0.015545   0.008156  -0.000255   0.004708  -0.015640   0.360350
    18  H   -0.000422  -0.000102   0.000313  -0.008847  -0.016935   0.009720
    19  H   -0.000024   0.000002  -0.000069   0.005449  -0.020835  -0.003572
    20  H    0.004489  -0.001183   0.000913  -0.002604  -0.015788  -0.007480
    21  H   -0.000335   0.000133  -0.000058   0.001570  -0.012803  -0.008394
    22  H    0.000323  -0.000038  -0.000014   0.005492  -0.026230  -0.003616
    23  H   -0.000339  -0.000118   0.000709  -0.008597  -0.014035   0.008622
    24  H   -0.000024  -0.003572  -0.020835   0.005449  -0.000069   0.000002
    25  H   -0.000422   0.009720  -0.016935  -0.008847   0.000313  -0.000102
    26  H    0.004489  -0.007480  -0.015788  -0.002604   0.000913  -0.001183
    27  H   -0.000335  -0.008394  -0.012803   0.001570  -0.000058   0.000133
    28  H   -0.000339   0.008622  -0.014035  -0.008597   0.000709  -0.000118
    29  H    0.000323  -0.003616  -0.026230   0.005492  -0.000014  -0.000038
               7          8          9         10         11         12
     1  C   -0.011240   0.010811  -0.000143  -0.011240   0.010811   0.367076
     2  C    0.001158  -0.002262   0.006465  -0.077200  -0.064887  -0.015612
     3  C   -0.005816   0.009723  -0.069037   0.405025   0.393696   0.007205
     4  N   -0.059691  -0.060764   0.214512  -0.059691  -0.060764   0.000024
     5  C    0.405025   0.393696  -0.069037  -0.005816   0.009723   0.007205
     6  C   -0.077200  -0.064887   0.006465   0.001158  -0.002262  -0.015612
     7  C    4.971810  -0.082146  -0.008967   0.002780  -0.000693  -0.000273
     8  C   -0.082146   4.930937   0.007067  -0.000693   0.000021  -0.000267
     9  O   -0.008967   0.007067   8.200874  -0.008967   0.007067   0.000010
    10  C    0.002780  -0.000693  -0.008967   4.971810  -0.082146  -0.000273
    11  C   -0.000693   0.000021   0.007067  -0.082146   4.930937  -0.000267
    12  H   -0.000273  -0.000267   0.000010  -0.000273  -0.000267   0.578369
    13  H    0.004410   0.000060  -0.000047   0.004410   0.000060  -0.025889
    14  H   -0.000011   0.000038  -0.000124  -0.004315  -0.004647  -0.003898
    15  H    0.000301  -0.000235  -0.000216   0.009389  -0.007716  -0.006597
    16  H    0.009389  -0.007716  -0.000216   0.000301  -0.000235  -0.006597
    17  H   -0.004315  -0.004647  -0.000124  -0.000011   0.000038  -0.003898
    18  H    0.370514  -0.008046   0.014890   0.000806  -0.000137   0.000013
    19  H    0.376793  -0.002199  -0.000000   0.000041   0.000018  -0.000006
    20  H    0.377705   0.007237  -0.000206   0.000230   0.000015  -0.000183
    21  H    0.008764   0.369941  -0.001309   0.000052  -0.000116  -0.000023
    22  H   -0.003704   0.379873   0.000748   0.000015   0.000004  -0.000012
    23  H   -0.005640   0.373696   0.015432   0.000003  -0.000043   0.000008
    24  H    0.000041   0.000018  -0.000000   0.376793  -0.002199  -0.000006
    25  H    0.000806  -0.000137   0.014890   0.370514  -0.008046   0.000013
    26  H    0.000230   0.000015  -0.000206   0.377705   0.007237  -0.000183
    27  H    0.000052  -0.000116  -0.001309   0.008764   0.369941  -0.000023
    28  H    0.000003  -0.000043   0.015432  -0.005640   0.373696   0.000008
    29  H    0.000015   0.000004   0.000748  -0.003704   0.379873  -0.000012
              13         14         15         16         17         18
     1  C    0.375974  -0.015545  -0.027571  -0.027571  -0.015545  -0.000422
     2  C   -0.026896   0.360350   0.358335  -0.000357   0.008156  -0.000102
     3  C   -0.006131  -0.015640  -0.014575  -0.004110  -0.000255   0.000313
     4  N   -0.002453   0.004708  -0.002235  -0.002235   0.004708  -0.008847
     5  C   -0.006131  -0.000255  -0.004110  -0.014575  -0.015640  -0.016935
     6  C   -0.026896   0.008156  -0.000357   0.358335   0.360350   0.009720
     7  C    0.004410  -0.000011   0.000301   0.009389  -0.004315   0.370514
     8  C    0.000060   0.000038  -0.000235  -0.007716  -0.004647  -0.008046
     9  O   -0.000047  -0.000124  -0.000216  -0.000216  -0.000124   0.014890
    10  C    0.004410  -0.004315   0.009389   0.000301  -0.000011   0.000806
    11  C    0.000060  -0.004647  -0.007716  -0.000235   0.000038  -0.000137
    12  H   -0.025889  -0.003898  -0.006597  -0.006597  -0.003898   0.000013
    13  H    0.588449  -0.005296   0.006835   0.006835  -0.005296  -0.000262
    14  H   -0.005296   0.576720  -0.024380   0.000012  -0.000307   0.000005
    15  H    0.006835  -0.024380   0.596199   0.006267   0.000012   0.000004
    16  H    0.006835   0.000012   0.006267   0.596199  -0.024380  -0.000318
    17  H   -0.005296  -0.000307   0.000012  -0.024380   0.576720   0.000040
    18  H   -0.000262   0.000005   0.000004  -0.000318   0.000040   0.542727
    19  H   -0.000043  -0.000003  -0.000006  -0.000171   0.003616  -0.018385
    20  H    0.004462   0.000039  -0.000016   0.000000  -0.000583  -0.019887
    21  H    0.000016   0.000001   0.000073   0.007318  -0.000205  -0.000054
    22  H   -0.000027   0.000000   0.000009  -0.000857   0.004002  -0.000078
    23  H    0.000009   0.000001   0.000009   0.000063  -0.000342   0.005399
    24  H   -0.000043   0.003616  -0.000171  -0.000006  -0.000003   0.000003
    25  H   -0.000262   0.000040  -0.000318   0.000004   0.000005   0.000206
    26  H    0.004462  -0.000583   0.000000  -0.000016   0.000039  -0.000204
    27  H    0.000016  -0.000205   0.007318   0.000073   0.000001   0.000003
    28  H    0.000009  -0.000342   0.000063   0.000009   0.000001  -0.000027
    29  H   -0.000027   0.004003  -0.000857   0.000009   0.000000  -0.000002
              19         20         21         22         23         24
     1  C   -0.000024   0.004489  -0.000335   0.000323  -0.000339  -0.000024
     2  C    0.000002  -0.001183   0.000133  -0.000038  -0.000118  -0.003572
     3  C   -0.000069   0.000913  -0.000058  -0.000014   0.000709  -0.020835
     4  N    0.005449  -0.002604   0.001570   0.005492  -0.008597   0.005449
     5  C   -0.020835  -0.015788  -0.012803  -0.026230  -0.014035  -0.000069
     6  C   -0.003572  -0.007480  -0.008394  -0.003616   0.008622   0.000002
     7  C    0.376793   0.377705   0.008764  -0.003704  -0.005640   0.000041
     8  C   -0.002199   0.007237   0.369941   0.379873   0.373696   0.000018
     9  O   -0.000000  -0.000206  -0.001309   0.000748   0.015432  -0.000000
    10  C    0.000041   0.000230   0.000052   0.000015   0.000003   0.376793
    11  C    0.000018   0.000015  -0.000116   0.000004  -0.000043  -0.002199
    12  H   -0.000006  -0.000183  -0.000023  -0.000012   0.000008  -0.000006
    13  H   -0.000043   0.004462   0.000016  -0.000027   0.000009  -0.000043
    14  H   -0.000003   0.000039   0.000001   0.000000   0.000001   0.003616
    15  H   -0.000006  -0.000016   0.000073   0.000009   0.000009  -0.000171
    16  H   -0.000171   0.000000   0.007318  -0.000857   0.000063  -0.000006
    17  H    0.003616  -0.000583  -0.000205   0.004002  -0.000342  -0.000003
    18  H   -0.018385  -0.019887  -0.000054  -0.000078   0.005399   0.000003
    19  H    0.551357  -0.019436  -0.000067   0.003086  -0.000662  -0.000001
    20  H   -0.019436   0.538450  -0.000312  -0.000076   0.000020   0.000056
    21  H   -0.000067  -0.000312   0.553184  -0.018221  -0.019093  -0.000002
    22  H    0.003086  -0.000076  -0.018221   0.558145  -0.019532  -0.000000
    23  H   -0.000662   0.000020  -0.019093  -0.019532   0.533908   0.000001
    24  H   -0.000001   0.000056  -0.000002  -0.000000   0.000001   0.551357
    25  H    0.000003  -0.000204   0.000003  -0.000002  -0.000027  -0.018385
    26  H    0.000056   0.005745  -0.000004   0.000000  -0.000001  -0.019436
    27  H   -0.000002  -0.000004   0.000166   0.000003  -0.000004  -0.000067
    28  H    0.000001  -0.000001  -0.000004  -0.000001  -0.000017  -0.000662
    29  H   -0.000000   0.000000   0.000003  -0.000000  -0.000001   0.003086
              25         26         27         28         29
     1  C   -0.000422   0.004489  -0.000335  -0.000339   0.000323
     2  C    0.009720  -0.007480  -0.008394   0.008622  -0.003616
     3  C   -0.016935  -0.015788  -0.012803  -0.014035  -0.026230
     4  N   -0.008847  -0.002604   0.001570  -0.008597   0.005492
     5  C    0.000313   0.000913  -0.000058   0.000709  -0.000014
     6  C   -0.000102  -0.001183   0.000133  -0.000118  -0.000038
     7  C    0.000806   0.000230   0.000052   0.000003   0.000015
     8  C   -0.000137   0.000015  -0.000116  -0.000043   0.000004
     9  O    0.014890  -0.000206  -0.001309   0.015432   0.000748
    10  C    0.370514   0.377705   0.008764  -0.005640  -0.003704
    11  C   -0.008046   0.007237   0.369941   0.373696   0.379873
    12  H    0.000013  -0.000183  -0.000023   0.000008  -0.000012
    13  H   -0.000262   0.004462   0.000016   0.000009  -0.000027
    14  H    0.000040  -0.000583  -0.000205  -0.000342   0.004003
    15  H   -0.000318   0.000000   0.007318   0.000063  -0.000857
    16  H    0.000004  -0.000016   0.000073   0.000009   0.000009
    17  H    0.000005   0.000039   0.000001   0.000001   0.000000
    18  H    0.000206  -0.000204   0.000003  -0.000027  -0.000002
    19  H    0.000003   0.000056  -0.000002   0.000001  -0.000000
    20  H   -0.000204   0.005745  -0.000004  -0.000001   0.000000
    21  H    0.000003  -0.000004   0.000166  -0.000004   0.000003
    22  H   -0.000002   0.000000   0.000003  -0.000001  -0.000000
    23  H   -0.000027  -0.000001  -0.000004  -0.000017  -0.000001
    24  H   -0.018385  -0.019436  -0.000067  -0.000662   0.003086
    25  H    0.542727  -0.019887  -0.000054   0.005399  -0.000078
    26  H   -0.019887   0.538450  -0.000312   0.000020  -0.000076
    27  H   -0.000054  -0.000312   0.553184  -0.019093  -0.018221
    28  H    0.005399   0.000020  -0.019093   0.533908  -0.019531
    29  H   -0.000078  -0.000076  -0.018221  -0.019531   0.558145
          Atomic-Atomic Spin Densities.
               1          2          3          4          5          6
     1  C    0.016858  -0.009357   0.006651  -0.000463   0.006651  -0.009357
     2  C   -0.009357   0.002385   0.002568  -0.001227  -0.003399   0.004256
     3  C    0.006651   0.002568  -0.037823   0.017685   0.007288  -0.003399
     4  N   -0.000463  -0.001227   0.017685   0.687801   0.017685  -0.001227
     5  C    0.006651  -0.003399   0.007288   0.017685  -0.037823   0.002568
     6  C   -0.009357   0.004256  -0.003399  -0.001227   0.002568   0.002385
     7  C   -0.005870   0.001738  -0.003484  -0.019593  -0.014060   0.005557
     8  C    0.002224  -0.000634   0.000490  -0.019257  -0.002622   0.000830
     9  O   -0.000095  -0.000082  -0.002949  -0.180595  -0.002949  -0.000082
    10  C   -0.005870   0.005557  -0.014060  -0.019594  -0.003484   0.001738
    11  C    0.002224   0.000830  -0.002622  -0.019257   0.000490  -0.000634
    12  H    0.001036  -0.000490   0.000119  -0.000026   0.000119  -0.000490
    13  H   -0.002060   0.001048  -0.000780  -0.000224  -0.000780   0.001048
    14  H   -0.000249   0.000606  -0.000216   0.000003  -0.000007   0.000039
    15  H   -0.001678   0.000648  -0.000476   0.001616  -0.000196   0.000591
    16  H   -0.001678   0.000591  -0.000196   0.001616  -0.000476   0.000648
    17  H   -0.000249   0.000039  -0.000007   0.000003  -0.000216   0.000606
    18  H   -0.000227   0.000084  -0.000397  -0.004706   0.000709  -0.000030
    19  H    0.000328  -0.000062   0.000130   0.000586   0.002417  -0.000643
    20  H    0.000352  -0.000114   0.000207   0.000894   0.000862  -0.000215
    21  H   -0.000193   0.000084   0.000001   0.003178   0.001896  -0.000049
    22  H   -0.000032   0.000017  -0.000025   0.000039   0.001961  -0.000121
    23  H   -0.000005   0.000009  -0.000071   0.000253   0.000677  -0.000203
    24  H    0.000328  -0.000643   0.002417   0.000586   0.000130  -0.000062
    25  H   -0.000227  -0.000030   0.000709  -0.004706  -0.000397   0.000084
    26  H    0.000352  -0.000215   0.000862   0.000894   0.000207  -0.000114
    27  H   -0.000193  -0.000049   0.001896   0.003178   0.000001   0.000084
    28  H   -0.000005  -0.000203   0.000677   0.000253  -0.000071   0.000009
    29  H   -0.000032  -0.000121   0.001961   0.000039  -0.000025   0.000017
               7          8          9         10         11         12
     1  C   -0.005870   0.002224  -0.000095  -0.005870   0.002224   0.001036
     2  C    0.001738  -0.000634  -0.000082   0.005557   0.000830  -0.000490
     3  C   -0.003484   0.000490  -0.002949  -0.014060  -0.002622   0.000119
     4  N   -0.019593  -0.019257  -0.180595  -0.019594  -0.019257  -0.000026
     5  C   -0.014060  -0.002622  -0.002949  -0.003484   0.000490   0.000119
     6  C    0.005557   0.000830  -0.000082   0.001738  -0.000634  -0.000490
     7  C    0.077127  -0.022148   0.005635   0.003467  -0.000603  -0.000053
     8  C   -0.022148   0.056246   0.004674  -0.000603   0.000681   0.000019
     9  O    0.005635   0.004674   0.670262   0.005635   0.004674   0.000000
    10  C    0.003467  -0.000603   0.005635   0.077127  -0.022148  -0.000053
    11  C   -0.000603   0.000681   0.004674  -0.022148   0.056246   0.000019
    12  H   -0.000053   0.000019   0.000000  -0.000053   0.000019   0.000451
    13  H    0.000831  -0.000104   0.000019   0.000831  -0.000104  -0.000149
    14  H    0.000018  -0.000006   0.000004   0.000612  -0.000381  -0.000015
    15  H    0.000117  -0.000174  -0.000087   0.000841  -0.001962  -0.000084
    16  H    0.000841  -0.001962  -0.000087   0.000117  -0.000174  -0.000084
    17  H    0.000612  -0.000381   0.000004   0.000018  -0.000006  -0.000015
    18  H    0.004066  -0.002073   0.002464   0.000511  -0.000082  -0.000002
    19  H   -0.005125   0.002751  -0.000223  -0.000099   0.000010   0.000002
    20  H   -0.001437   0.000261  -0.000164  -0.000317   0.000031   0.000005
    21  H    0.000976  -0.007171  -0.001479   0.000042  -0.000160  -0.000002
    22  H    0.000959  -0.002524  -0.000068   0.000005  -0.000005  -0.000000
    23  H    0.000520  -0.000464  -0.001035   0.000003   0.000001  -0.000000
    24  H   -0.000099   0.000010  -0.000223  -0.005125   0.002751   0.000002
    25  H    0.000511  -0.000082   0.002464   0.004066  -0.002073  -0.000002
    26  H   -0.000317   0.000031  -0.000164  -0.001437   0.000261   0.000005
    27  H    0.000042  -0.000160  -0.001479   0.000976  -0.007171  -0.000002
    28  H    0.000003   0.000001  -0.001035   0.000520  -0.000464  -0.000000
    29  H    0.000005  -0.000005  -0.000068   0.000959  -0.002524  -0.000000
              13         14         15         16         17         18
     1  C   -0.002060  -0.000249  -0.001678  -0.001678  -0.000249  -0.000227
     2  C    0.001048   0.000606   0.000648   0.000591   0.000039   0.000084
     3  C   -0.000780  -0.000216  -0.000476  -0.000196  -0.000007  -0.000397
     4  N   -0.000224   0.000003   0.001616   0.001616   0.000003  -0.004706
     5  C   -0.000780  -0.000007  -0.000196  -0.000476  -0.000216   0.000709
     6  C    0.001048   0.000039   0.000591   0.000648   0.000606  -0.000030
     7  C    0.000831   0.000018   0.000117   0.000841   0.000612   0.004066
     8  C   -0.000104  -0.000006  -0.000174  -0.001962  -0.000381  -0.002073
     9  O    0.000019   0.000004  -0.000087  -0.000087   0.000004   0.002464
    10  C    0.000831   0.000612   0.000841   0.000117   0.000018   0.000511
    11  C   -0.000104  -0.000381  -0.001962  -0.000174  -0.000006  -0.000082
    12  H   -0.000149  -0.000015  -0.000084  -0.000084  -0.000015  -0.000002
    13  H    0.000703   0.000034   0.000075   0.000075   0.000034   0.000047
    14  H    0.000034  -0.001263   0.000250   0.000012   0.000001   0.000000
    15  H    0.000075   0.000250   0.000329   0.000214   0.000012   0.000005
    16  H    0.000075   0.000012   0.000214   0.000329   0.000250   0.000038
    17  H    0.000034   0.000001   0.000012   0.000250  -0.001263   0.000032
    18  H    0.000047   0.000000   0.000005   0.000038   0.000032  -0.000664
    19  H   -0.000069  -0.000000  -0.000003  -0.000072  -0.000170  -0.002084
    20  H   -0.000087  -0.000003  -0.000005  -0.000017  -0.000030  -0.000315
    21  H    0.000005   0.000000   0.000040   0.000335   0.000042   0.000131
    22  H    0.000002  -0.000000   0.000002   0.000132  -0.000052   0.000125
    23  H    0.000000  -0.000000   0.000000   0.000015   0.000017  -0.000126
    24  H   -0.000069  -0.000170  -0.000072  -0.000003  -0.000000  -0.000029
    25  H    0.000047   0.000032   0.000038   0.000005   0.000000   0.000242
    26  H   -0.000087  -0.000030  -0.000017  -0.000005  -0.000003  -0.000073
    27  H    0.000005   0.000042   0.000335   0.000040   0.000000   0.000007
    28  H    0.000000   0.000017   0.000015   0.000000  -0.000000   0.000003
    29  H    0.000002  -0.000052   0.000132   0.000002  -0.000000   0.000001
              19         20         21         22         23         24
     1  C    0.000328   0.000352  -0.000193  -0.000032  -0.000005   0.000328
     2  C   -0.000062  -0.000114   0.000084   0.000017   0.000009  -0.000643
     3  C    0.000130   0.000207   0.000001  -0.000025  -0.000071   0.002417
     4  N    0.000586   0.000894   0.003178   0.000039   0.000253   0.000586
     5  C    0.002417   0.000862   0.001896   0.001961   0.000677   0.000130
     6  C   -0.000643  -0.000215  -0.000049  -0.000121  -0.000203  -0.000062
     7  C   -0.005125  -0.001437   0.000976   0.000959   0.000520  -0.000099
     8  C    0.002751   0.000261  -0.007171  -0.002524  -0.000464   0.000010
     9  O   -0.000223  -0.000164  -0.001479  -0.000068  -0.001035  -0.000223
    10  C   -0.000099  -0.000317   0.000042   0.000005   0.000003  -0.005125
    11  C    0.000010   0.000031  -0.000160  -0.000005   0.000001   0.002751
    12  H    0.000002   0.000005  -0.000002  -0.000000  -0.000000   0.000002
    13  H   -0.000069  -0.000087   0.000005   0.000002   0.000000  -0.000069
    14  H   -0.000000  -0.000003   0.000000  -0.000000  -0.000000  -0.000170
    15  H   -0.000003  -0.000005   0.000040   0.000002   0.000000  -0.000072
    16  H   -0.000072  -0.000017   0.000335   0.000132   0.000015  -0.000003
    17  H   -0.000170  -0.000030   0.000042  -0.000052   0.000017  -0.000000
    18  H   -0.002084  -0.000315   0.000131   0.000125  -0.000126  -0.000029
    19  H    0.004595   0.000483  -0.000089  -0.000219  -0.000062   0.000002
    20  H    0.000483  -0.001312  -0.000010  -0.000013  -0.000003   0.000025
    21  H   -0.000089  -0.000010   0.001776   0.000566   0.000286  -0.000001
    22  H   -0.000219  -0.000013   0.000566  -0.002088   0.000163  -0.000000
    23  H   -0.000062  -0.000003   0.000286   0.000163  -0.001120  -0.000000
    24  H    0.000002   0.000025  -0.000001  -0.000000  -0.000000   0.004595
    25  H   -0.000029  -0.000073   0.000007   0.000001   0.000003  -0.002084
    26  H    0.000025   0.000065  -0.000002  -0.000001  -0.000000   0.000483
    27  H   -0.000001  -0.000002   0.000049   0.000001   0.000002  -0.000089
    28  H   -0.000000  -0.000000   0.000002   0.000000   0.000002  -0.000062
    29  H   -0.000000  -0.000001   0.000001  -0.000000   0.000000  -0.000219
              25         26         27         28         29
     1  C   -0.000227   0.000352  -0.000193  -0.000005  -0.000032
     2  C   -0.000030  -0.000215  -0.000049  -0.000203  -0.000121
     3  C    0.000709   0.000862   0.001896   0.000677   0.001961
     4  N   -0.004706   0.000894   0.003178   0.000253   0.000039
     5  C   -0.000397   0.000207   0.000001  -0.000071  -0.000025
     6  C    0.000084  -0.000114   0.000084   0.000009   0.000017
     7  C    0.000511  -0.000317   0.000042   0.000003   0.000005
     8  C   -0.000082   0.000031  -0.000160   0.000001  -0.000005
     9  O    0.002464  -0.000164  -0.001479  -0.001035  -0.000068
    10  C    0.004066  -0.001437   0.000976   0.000520   0.000959
    11  C   -0.002073   0.000261  -0.007171  -0.000464  -0.002524
    12  H   -0.000002   0.000005  -0.000002  -0.000000  -0.000000
    13  H    0.000047  -0.000087   0.000005   0.000000   0.000002
    14  H    0.000032  -0.000030   0.000042   0.000017  -0.000052
    15  H    0.000038  -0.000017   0.000335   0.000015   0.000132
    16  H    0.000005  -0.000005   0.000040   0.000000   0.000002
    17  H    0.000000  -0.000003   0.000000  -0.000000  -0.000000
    18  H    0.000242  -0.000073   0.000007   0.000003   0.000001
    19  H   -0.000029   0.000025  -0.000001  -0.000000  -0.000000
    20  H   -0.000073   0.000065  -0.000002  -0.000000  -0.000001
    21  H    0.000007  -0.000002   0.000049   0.000002   0.000001
    22  H    0.000001  -0.000001   0.000001   0.000000  -0.000000
    23  H    0.000003  -0.000000   0.000002   0.000002   0.000000
    24  H   -0.002084   0.000483  -0.000089  -0.000062  -0.000219
    25  H   -0.000664  -0.000315   0.000131  -0.000126   0.000125
    26  H   -0.000315  -0.001312  -0.000010  -0.000003  -0.000013
    27  H    0.000131  -0.000010   0.001776   0.000286   0.000566
    28  H   -0.000126  -0.000003   0.000286  -0.001120   0.000163
    29  H    0.000125  -0.000013   0.000566   0.000163  -0.002088
 Mulliken charges and spin densities:
               1          2
     1  C   -0.173160  -0.000836
     2  C   -0.157904   0.003835
     3  C   -0.124316  -0.022843
     4  N   -0.061324   0.465430
     5  C   -0.124316  -0.022843
     6  C   -0.157904   0.003835
     7  C   -0.270101   0.030236
     8  C   -0.248980   0.007847
     9  O   -0.344689   0.502971
    10  C   -0.270101   0.030236
    11  C   -0.248980   0.007847
    12  H    0.119701   0.000314
    13  H    0.109694   0.000297
    14  H    0.117863  -0.000722
    15  H    0.104545   0.000506
    16  H    0.104545   0.000506
    17  H    0.117863  -0.000722
    18  H    0.129065  -0.002343
    19  H    0.125060   0.002380
    20  H    0.128602  -0.000932
    21  H    0.119778   0.000261
    22  H    0.120708  -0.001174
    23  H    0.130569  -0.001138
    24  H    0.125060   0.002380
    25  H    0.129065  -0.002343
    26  H    0.128602  -0.000932
    27  H    0.119778   0.000261
    28  H    0.130569  -0.001138
    29  H    0.120708  -0.001174
 Sum of Mulliken charges =  -0.00000   1.00000
 Mulliken charges and spin densities with hydrogens summed into heavy atoms:
               1          2
     1  C    0.056235  -0.000225
     2  C    0.064505   0.003620
     3  C   -0.124316  -0.022843
     4  N   -0.061324   0.465430
     5  C   -0.124316  -0.022843
     6  C    0.064505   0.003620
     7  C    0.112625   0.029339
     8  C    0.122075   0.005796
     9  O   -0.344689   0.502971
    10  C    0.112625   0.029339
    11  C    0.122075   0.005796
 APT charges:
               1
     1  C    0.076147
     2  C    0.071028
     3  C    0.369923
     4  N   -0.116760
     5  C    0.369923
     6  C    0.071030
     7  C   -0.054505
     8  C   -0.006325
     9  O   -0.576983
    10  C   -0.054505
    11  C   -0.006326
    12  H   -0.040333
    13  H   -0.025183
    14  H   -0.026792
    15  H   -0.038023
    16  H   -0.038024
    17  H   -0.026792
    18  H    0.018334
    19  H   -0.002349
    20  H    0.001251
    21  H   -0.008346
    22  H   -0.002686
    23  H    0.020047
    24  H   -0.002350
    25  H    0.018334
    26  H    0.001250
    27  H   -0.008346
    28  H    0.020048
    29  H   -0.002686
 Sum of APT charges =  -0.00000
 APT charges with hydrogens summed into heavy atoms:
               1
     1  C    0.010630
     2  C    0.006214
     3  C    0.369923
     4  N   -0.116760
     5  C    0.369923
     6  C    0.006214
     7  C   -0.037270
     8  C    0.002689
     9  O   -0.576983
    10  C   -0.037271
    11  C    0.002690
 Electronic spatial extent (au):  <R**2>=           1678.2695
 Charge=              0.0000 electrons
 Dipole moment (field-independent basis, Debye):
    X=              0.0001    Y=              3.8183    Z=              0.2937  Tot=              3.8296
 Quadrupole moment (field-independent basis, Debye-Ang):
   XX=            -65.3685   YY=            -76.1050   ZZ=            -68.7917
   XY=             -0.0001   XZ=              0.0000   YZ=             -0.7365
 Traceless Quadrupole moment (field-independent basis, Debye-Ang):
   XX=              4.7199   YY=             -6.0166   ZZ=              1.2967
   XY=             -0.0001   XZ=              0.0000   YZ=             -0.7365
 Octapole moment (field-independent basis, Debye-Ang**2):
  XXX=             -0.0034  YYY=             11.0283  ZZZ=             -3.0088  XYY=             -0.0011
  XXY=             -0.7155  XXZ=              1.5400  XZZ=             -0.0011  YZZ=             -2.0495
  YYZ=              1.2276  XYZ=              0.0000
 Hexadecapole moment (field-independent basis, Debye-Ang**3):
 XXXX=          -1108.9745 YYYY=           -712.6166 ZZZZ=           -428.2872 XXXY=              0.0038
 XXXZ=             -0.0049 YYYX=              0.0039 YYYZ=             -8.0186 ZZZX=             -0.0060
 ZZZY=              1.3132 XXYY=           -301.6503 XXZZ=           -267.4049 YYZZ=           -184.6890
 XXYZ=             -0.0384 YYXZ=             -0.0020 ZZXY=              0.0015
 N-N= 7.164359744591D+02 E-N=-2.553785831849D+03  KE= 4.781680195370D+02
  Exact polarizability: 131.484  -0.000 128.326   0.000   0.055 116.058
 Approx polarizability: 107.983   0.000 114.724   0.000   0.043 103.623
                          Isotropic Fermi Contact Couplings
        Atom                 a.u.       MegaHertz       Gauss      10(-4) cm-1
     1  C(13)             -0.00085      -0.95621      -0.34120      -0.31896
     2  C(13)              0.00308       3.46790       1.23743       1.15677
     3  C(13)             -0.01548     -17.40289      -6.20978      -5.80498
     4  N(14)              0.19841      64.10693      22.87495      21.38377
     5  C(13)             -0.01548     -17.40289      -6.20978      -5.80498
     6  C(13)              0.00308       3.46791       1.23744       1.15677
     7  C(13)              0.02291      25.75550       9.19020       8.59111
     8  C(13)              0.00942      10.59037       3.77891       3.53257
     9  O(17)              0.19846    -120.30779     -42.92881     -40.13036
    10  C(13)              0.02291      25.75551       9.19021       8.59111
    11  C(13)              0.00942      10.59036       3.77891       3.53257
    12  H(1)               0.00015       0.69036       0.24634       0.23028
    13  H(1)               0.00005       0.20779       0.07415       0.06931
    14  H(1)              -0.00027      -1.19986      -0.42814      -0.40023
    15  H(1)              -0.00009      -0.40921      -0.14602      -0.13650
    16  H(1)              -0.00009      -0.40921      -0.14602      -0.13650
    17  H(1)              -0.00027      -1.19986      -0.42814      -0.40023
    18  H(1)              -0.00063      -2.83183      -1.01047      -0.94460
    19  H(1)               0.00085       3.80321       1.35708       1.26862
    20  H(1)              -0.00037      -1.65669      -0.59115      -0.55261
    21  H(1)              -0.00022      -0.96165      -0.34314      -0.32077
    22  H(1)              -0.00041      -1.82264      -0.65036      -0.60797
    23  H(1)              -0.00020      -0.90732      -0.32375      -0.30265
    24  H(1)               0.00085       3.80322       1.35708       1.26862
    25  H(1)              -0.00063      -2.83183      -1.01047      -0.94460
    26  H(1)              -0.00037      -1.65668      -0.59114      -0.55261
    27  H(1)              -0.00022      -0.96165      -0.34314      -0.32077
    28  H(1)              -0.00020      -0.90732      -0.32375      -0.30265
    29  H(1)              -0.00041      -1.82264      -0.65036      -0.60797
 --------------------------------------------------------
       Center         ----  Spin Dipole Couplings  ----
                      3XX-RR        3YY-RR        3ZZ-RR
 --------------------------------------------------------
     1   Atom       -0.004199      0.007671     -0.003472
     2   Atom       -0.002956      0.008994     -0.006037
     3   Atom        0.010867     -0.001627     -0.009241
     4   Atom       -0.621166     -0.608346      1.229512
     5   Atom        0.010868     -0.001628     -0.009240
     6   Atom       -0.002956      0.008993     -0.006037
     7   Atom       -0.008988     -0.018194      0.027182
     8   Atom        0.016198     -0.006830     -0.009368
     9   Atom       -1.022512     -1.081641      2.104153
    10   Atom       -0.008986     -0.018194      0.027180
    11   Atom        0.016198     -0.006831     -0.009367
    12   Atom       -0.001759      0.003413     -0.001654
    13   Atom       -0.002812      0.004725     -0.001913
    14   Atom       -0.000002      0.002424     -0.002421
    15   Atom       -0.002072      0.003888     -0.001817
    16   Atom       -0.002071      0.003888     -0.001817
    17   Atom       -0.000002      0.002424     -0.002421
    18   Atom        0.000494     -0.003526      0.003032
    19   Atom        0.004314     -0.002901     -0.001413
    20   Atom       -0.002854     -0.001657      0.004511
    21   Atom        0.004756     -0.005840      0.001083
    22   Atom        0.005379     -0.002397     -0.002982
    23   Atom        0.011705     -0.005006     -0.006699
    24   Atom        0.004314     -0.002901     -0.001413
    25   Atom        0.000495     -0.003526      0.003031
    26   Atom       -0.002854     -0.001657      0.004511
    27   Atom        0.004756     -0.005840      0.001084
    28   Atom        0.011706     -0.005006     -0.006699
    29   Atom        0.005379     -0.002397     -0.002982
 --------------------------------------------------------
                        XY            XZ            YZ
 --------------------------------------------------------
     1   Atom        0.000000     -0.000000      0.000650
     2   Atom       -0.006432      0.000503      0.000160
     3   Atom       -0.013645     -0.008198      0.003664
     4   Atom        0.000001     -0.000030     -0.035503
     5   Atom        0.013645      0.008199      0.003664
     6   Atom        0.006433     -0.000503      0.000160
     7   Atom       -0.000768      0.024783     -0.007275
     8   Atom       -0.004216     -0.009626      0.002647
     9   Atom       -0.000003     -0.000048      0.105890
    10   Atom        0.000768     -0.024784     -0.007274
    11   Atom        0.004215      0.009627      0.002647
    12   Atom        0.000000     -0.000000     -0.000205
    13   Atom        0.000000      0.000000      0.002862
    14   Atom       -0.003735     -0.000013     -0.000062
    15   Atom       -0.004605      0.002218     -0.004597
    16   Atom        0.004605     -0.002218     -0.004597
    17   Atom        0.003735      0.000013     -0.000062
    18   Atom        0.001986      0.010230      0.000320
    19   Atom        0.003825      0.003167      0.000880
    20   Atom        0.001479      0.002544      0.006387
    21   Atom        0.001311     -0.008760     -0.001032
    22   Atom        0.002333     -0.001563     -0.000228
    23   Atom       -0.002674     -0.002401      0.000015
    24   Atom       -0.003825     -0.003167      0.000880
    25   Atom       -0.001986     -0.010230      0.000320
    26   Atom       -0.001479     -0.002544      0.006387
    27   Atom       -0.001312      0.008760     -0.001033
    28   Atom        0.002674      0.002402      0.000015
    29   Atom       -0.002334      0.001564     -0.000228
 --------------------------------------------------------


 ---------------------------------------------------------------------------------
              Anisotropic Spin Dipole Couplings in Principal Axis System
 ---------------------------------------------------------------------------------

       Atom             a.u.   MegaHertz   Gauss  10(-4) cm-1        Axes

              Baa    -0.0042    -0.563    -0.201    -0.188  1.0000 -0.0000  0.0000
     1 C(13)  Bbb    -0.0035    -0.471    -0.168    -0.157 -0.0000 -0.0580  0.9983
              Bcc     0.0077     1.034     0.369     0.345  0.0000  0.9983  0.0580
 
              Baa    -0.0064    -0.864    -0.308    -0.288 -0.5604 -0.2417  0.7922
     2 C(13)  Bbb    -0.0054    -0.719    -0.256    -0.240  0.7254  0.3183  0.6103
              Bcc     0.0118     1.583     0.565     0.528 -0.3997  0.9166 -0.0031
 
              Baa    -0.0125    -1.682    -0.600    -0.561  0.4710  0.3121  0.8251
     3 C(13)  Bbb    -0.0096    -1.289    -0.460    -0.430  0.3359  0.8014 -0.4949
              Bcc     0.0221     2.971     1.060     0.991  0.8157 -0.5103 -0.2726
 
              Baa    -0.6212   -23.957    -8.548    -7.991  1.0000 -0.0000  0.0000
     4 N(14)  Bbb    -0.6090   -23.489    -8.381    -7.835  0.0000  0.9998  0.0193
              Bcc     1.2302    47.446    16.930    15.826 -0.0000 -0.0193  0.9998
 
              Baa    -0.0125    -1.682    -0.600    -0.561 -0.4710  0.3121  0.8251
     5 C(13)  Bbb    -0.0096    -1.289    -0.460    -0.430 -0.3359  0.8014 -0.4949
              Bcc     0.0221     2.971     1.060     0.991  0.8157  0.5102  0.2727
 
              Baa    -0.0064    -0.864    -0.308    -0.288  0.5604 -0.2417  0.7922
     6 C(13)  Bbb    -0.0054    -0.719    -0.256    -0.240  0.7254 -0.3184 -0.6103
              Bcc     0.0118     1.583     0.565     0.528  0.3997  0.9166 -0.0030
 
              Baa    -0.0232    -3.111    -1.110    -1.038  0.7327 -0.5226 -0.4360
     7 C(13)  Bbb    -0.0174    -2.333    -0.832    -0.778  0.5143  0.8447 -0.1481
              Bcc     0.0406     5.444     1.943     1.816  0.4457 -0.1157  0.8877
 
              Baa    -0.0128    -1.724    -0.615    -0.575  0.2787 -0.2164  0.9357
     8 C(13)  Bbb    -0.0074    -0.998    -0.356    -0.333  0.2335  0.9603  0.1526
              Bcc     0.0203     2.722     0.971     0.908  0.9316 -0.1759 -0.3181
 
              Baa    -1.0852    78.521    28.018    26.192  0.0000  0.9994 -0.0332
     9 O(17)  Bbb    -1.0225    73.988    26.401    24.680  1.0000 -0.0000  0.0000
              Bcc     2.1077  -152.509   -54.419   -50.872 -0.0000  0.0332  0.9994
 
              Baa    -0.0232    -3.111    -1.110    -1.038  0.7327  0.5225  0.4360
    10 C(13)  Bbb    -0.0174    -2.333    -0.832    -0.778 -0.5143  0.8447 -0.1481
              Bcc     0.0406     5.444     1.943     1.816 -0.4457 -0.1157  0.8877
 
              Baa    -0.0128    -1.724    -0.615    -0.575 -0.2787 -0.2164  0.9357
    11 C(13)  Bbb    -0.0074    -0.998    -0.356    -0.333 -0.2334  0.9603  0.1526
              Bcc     0.0203     2.722     0.971     0.908  0.9316  0.1759  0.3182
 
              Baa    -0.0018    -0.938    -0.335    -0.313  1.0000 -0.0000  0.0000
    12 H(1)   Bbb    -0.0017    -0.887    -0.316    -0.296 -0.0000  0.0404  0.9992
              Bcc     0.0034     1.825     0.651     0.609  0.0000  0.9992 -0.0404
 
              Baa    -0.0030    -1.588    -0.567    -0.530 -0.0000 -0.3484  0.9374
    13 H(1)   Bbb    -0.0028    -1.500    -0.535    -0.500  1.0000 -0.0000  0.0000
              Bcc     0.0058     3.089     1.102     1.030  0.0000  0.9374  0.3484
 
              Baa    -0.0027    -1.453    -0.519    -0.485  0.7989  0.5815  0.1538
    14 H(1)   Bbb    -0.0024    -1.288    -0.460    -0.430 -0.1277 -0.0859  0.9881
              Bcc     0.0051     2.741     0.978     0.914 -0.5878  0.8090 -0.0057
 
              Baa    -0.0047    -2.504    -0.893    -0.835  0.6899  0.5928  0.4155
    15 H(1)   Bbb    -0.0041    -2.210    -0.789    -0.737 -0.5868  0.1218  0.8005
              Bcc     0.0088     4.714     1.682     1.572 -0.4240  0.7961 -0.4319
 
              Baa    -0.0047    -2.504    -0.893    -0.835  0.6899 -0.5928 -0.4155
    16 H(1)   Bbb    -0.0041    -2.210    -0.789    -0.737  0.5868  0.1218  0.8005
              Bcc     0.0088     4.714     1.682     1.572  0.4240  0.7961 -0.4319
 
              Baa    -0.0027    -1.453    -0.519    -0.485  0.7988 -0.5815 -0.1538
    17 H(1)   Bbb    -0.0024    -1.288    -0.460    -0.430  0.1277 -0.0859  0.9881
              Bcc     0.0051     2.741     0.978     0.914  0.5878  0.8090 -0.0057
 
              Baa    -0.0089    -4.726    -1.686    -1.576  0.7395 -0.2377 -0.6298
    18 H(1)   Bbb    -0.0034    -1.797    -0.641    -0.599  0.1141  0.9663 -0.2307
              Bcc     0.0122     6.523     2.328     2.176  0.6635  0.0987  0.7417
 
              Baa    -0.0046    -2.476    -0.883    -0.826 -0.4430  0.8748  0.1961
    19 H(1)   Bbb    -0.0026    -1.365    -0.487    -0.455 -0.2398 -0.3263  0.9143
              Bcc     0.0072     3.840     1.370     1.281  0.8639  0.3580  0.3543
 
              Baa    -0.0057    -3.025    -1.080    -1.009  0.0452  0.8411 -0.5389
    20 H(1)   Bbb    -0.0036    -1.902    -0.679    -0.634  0.9706 -0.1646 -0.1756
              Bcc     0.0092     4.927     1.758     1.644  0.2364  0.5152  0.8238
 
              Baa    -0.0060    -3.225    -1.151    -1.076  0.5918 -0.4621  0.6605
    21 H(1)   Bbb    -0.0060    -3.192    -1.139    -1.065  0.2286  0.8819  0.4123
              Bcc     0.0120     6.416     2.290     2.140  0.7730  0.0930 -0.6276
 
              Baa    -0.0034    -1.795    -0.641    -0.599  0.2741 -0.4619  0.8435
    22 H(1)   Bbb    -0.0029    -1.561    -0.557    -0.521 -0.1422  0.8480  0.5105
              Bcc     0.0063     3.356     1.198     1.120  0.9511  0.2598 -0.1668
 
              Baa    -0.0071    -3.772    -1.346    -1.258  0.1510  0.1888  0.9703
    23 H(1)   Bbb    -0.0053    -2.853    -1.018    -0.952  0.1229  0.9704 -0.2079
              Bcc     0.0124     6.626     2.364     2.210  0.9809 -0.1506 -0.1233
 
              Baa    -0.0046    -2.476    -0.883    -0.826  0.4430  0.8748  0.1961
    24 H(1)   Bbb    -0.0026    -1.365    -0.487    -0.455  0.2397 -0.3263  0.9144
              Bcc     0.0072     3.840     1.370     1.281  0.8639 -0.3581 -0.3543
 
              Baa    -0.0089    -4.726    -1.686    -1.576  0.7394  0.2377  0.6299
    25 H(1)   Bbb    -0.0034    -1.797    -0.641    -0.599 -0.1141  0.9663 -0.2307
              Bcc     0.0122     6.523     2.328     2.176 -0.6635  0.0988  0.7416
 
              Baa    -0.0057    -3.025    -1.080    -1.009 -0.0451  0.8411 -0.5389
    26 H(1)   Bbb    -0.0036    -1.902    -0.679    -0.634  0.9706  0.1646  0.1756
              Bcc     0.0092     4.927     1.758     1.644 -0.2364  0.5152  0.8238
 
              Baa    -0.0060    -3.225    -1.151    -1.076 -0.5918 -0.4621  0.6604
    27 H(1)   Bbb    -0.0060    -3.192    -1.139    -1.065 -0.2286  0.8819  0.4123
              Bcc     0.0120     6.416     2.290     2.140  0.7730 -0.0930  0.6276
 
              Baa    -0.0071    -3.772    -1.346    -1.258 -0.1510  0.1888  0.9703
    28 H(1)   Bbb    -0.0053    -2.853    -1.018    -0.952 -0.1229  0.9704 -0.2079
              Bcc     0.0124     6.626     2.364     2.210  0.9809  0.1506  0.1233
 
              Baa    -0.0034    -1.795    -0.641    -0.599 -0.2741 -0.4619  0.8435
    29 H(1)   Bbb    -0.0029    -1.561    -0.557    -0.521  0.1422  0.8480  0.5105
              Bcc     0.0063     3.356     1.198     1.120  0.9511 -0.2599  0.1668
 

 ---------------------------------------------------------------------------------

 No NMR shielding tensors so no spin-rotation constants.
 Leave Link  601 at Wed Feb 28 21:13:15 2024, MaxMem=  2147483648 cpu:               5.8 elap:               0.2
 (Enter /software/gaussian-16RevA.03-el7-x86_64/g16/l701.exe)
 ... and contract with generalized density number  0.
 Compute integral second derivatives.
 R6Disp: Adding Grimme-D2 dispersion energy 2nd derivatives to the Hessian.
   1 Symmetry operations used in ECPInt.
 ECPInt:  NShTT=    5253 NPrTT=   21107 LenC2=    5228 LenP2D=   16397.
 LDataN:  DoStor=T MaxTD1= 6 Len=  172
 D2PCM: PCM CHGder 2nd derivatives, FixD1E=F FixD2E=F DoIter=F DoCFld=F I1PDM=0
 GePol: Maximum number of non-zero 2nd derivatives   =     166
 Leave Link  701 at Wed Feb 28 21:13:17 2024, MaxMem=  2147483648 cpu:              70.5 elap:               2.6
 (Enter /software/gaussian-16RevA.03-el7-x86_64/g16/l702.exe)
 L702 exits ... SP integral derivatives will be done elsewhere.
 Leave Link  702 at Wed Feb 28 21:13:17 2024, MaxMem=  2147483648 cpu:               0.6 elap:               0.0
 (Enter /software/gaussian-16RevA.03-el7-x86_64/g16/l703.exe)
 Integral derivatives from FoFJK, PRISM(SPDF).
 Compute integral second derivatives, UseDBF=F ICtDFT=           0.
 Calling FoFJK, ICntrl=    100127 FMM=F ISym2X=0 I1Cent= 0 IOpClX= 1 NMat=1 NMatS=1 NMatT=0.
 FoFJK:  IHMeth= 1 ICntrl=  100127 DoSepK=T KAlg= 0 I1Cent=           0 FoldK=F
 IRaf=         1 NMat=       1 IRICut=       1 DoRegI=T DoRafI=F ISym2E= 0 IDoP0=0 IntGTp=1.
 FoFCou: FMM=F IPFlag=           0 FMFlag=      100000 FMFlg1=         800
         NFxFlg=           0 DoJE=F BraDBF=F KetDBF=F FulRan=T
         wScrn=  0.000000 ICntrl=    100527 IOpCl=  0 I1Cent=           0 NGrid=           0
         NMat0=    1 NMatS0=      1 NMatT0=    0 NMatD0=    1 NMtDS0=    0 NMtDT0=    0
 Symmetry not used in FoFCou.
 Leave Link  703 at Wed Feb 28 21:13:53 2024, MaxMem=  2147483648 cpu:            1001.5 elap:              35.8
 (Enter /software/gaussian-16RevA.03-el7-x86_64/g16/l716.exe)
 Dipole        = 2.75574208D-05 1.50224771D+00 1.15559656D-01
 Polarizability= 1.31483552D+02-4.11508210D-05 1.28326494D+02
                 2.54459020D-04 5.49543922D-02 1.16057917D+02
 Full mass-weighted force constant matrix:
 Low frequencies ---   -1.9699    0.0004    0.0005    0.0007   11.2209   16.7845
 Low frequencies ---   81.8960  124.1515  208.3784
 Diagonal vibrational polarizability:
        7.3481050       3.9510350      23.9910835
 Harmonic frequencies (cm**-1), IR intensities (KM/Mole), Raman scattering
 activities (A**4/AMU), depolarization ratios for plane and unpolarized
 incident light, reduced masses (AMU), force constants (mDyne/A),
 and normal coordinates:
                      1                      2                      3
                      A                      A                      A
 Frequencies --     81.8610               124.1484               208.3776
 Red. masses --      4.2515                 2.4435                 2.7845
 Frc consts  --      0.0168                 0.0222                 0.0712
 IR Inten    --      4.9513                 0.0679                 2.2311
  Atom  AN      X      Y      Z        X      Y      Z        X      Y      Z
     1   6    -0.00  -0.01   0.09     0.07  -0.00   0.00     0.00   0.02  -0.01
     2   6     0.01   0.02   0.02    -0.02   0.05   0.15    -0.00   0.02  -0.01
     3   6    -0.02   0.00  -0.03    -0.00  -0.00   0.02     0.02   0.00  -0.05
     4   7    -0.00  -0.00   0.11     0.00   0.00   0.00     0.00  -0.02  -0.13
     5   6     0.02   0.00  -0.03    -0.00   0.00  -0.02    -0.02   0.00  -0.05
     6   6    -0.01   0.02   0.02    -0.02  -0.05  -0.15     0.00   0.02  -0.01
     7   6     0.15  -0.03  -0.08    -0.03   0.15  -0.00    -0.15  -0.07  -0.02
     8   6    -0.08   0.01  -0.16     0.02  -0.08   0.08     0.07   0.05   0.01
     9   8    -0.00   0.01   0.32    -0.01   0.00   0.00    -0.00   0.00   0.22
    10   6    -0.15  -0.03  -0.08    -0.03  -0.15   0.00     0.15  -0.07  -0.02
    11   6     0.08   0.01  -0.16     0.02   0.08  -0.08    -0.07   0.05   0.01
    12   1    -0.00   0.02   0.17     0.04  -0.00   0.00     0.00   0.02  -0.02
    13   1    -0.00  -0.11   0.09     0.21  -0.00   0.00     0.00   0.02  -0.01
    14   1     0.00   0.01   0.00     0.04   0.04   0.34    -0.00  -0.00   0.03
    15   1     0.05   0.07   0.02    -0.19   0.15   0.15    -0.03   0.05  -0.01
    16   1    -0.05   0.07   0.02    -0.19  -0.15  -0.15     0.03   0.05  -0.01
    17   1    -0.00   0.01   0.00     0.04  -0.04  -0.34     0.00  -0.00   0.03
    18   1     0.27  -0.05  -0.12     0.01   0.18   0.09    -0.25  -0.08  -0.07
    19   1     0.13   0.06  -0.15    -0.04   0.21  -0.02    -0.14  -0.14   0.09
    20   1     0.14  -0.11  -0.01    -0.06   0.18  -0.07    -0.16  -0.05  -0.05
    21   1    -0.18   0.09  -0.14     0.06  -0.18   0.07     0.26   0.26  -0.06
    22   1    -0.06  -0.04  -0.22     0.02  -0.07   0.06     0.12  -0.06   0.28
    23   1    -0.11  -0.01  -0.24     0.01  -0.04   0.19    -0.12  -0.03  -0.13
    24   1    -0.13   0.06  -0.15    -0.04  -0.21   0.02     0.14  -0.14   0.09
    25   1    -0.27  -0.05  -0.12     0.01  -0.18  -0.09     0.25  -0.08  -0.07
    26   1    -0.14  -0.11  -0.01    -0.06  -0.18   0.07     0.16  -0.05  -0.05
    27   1     0.18   0.09  -0.14     0.06   0.18  -0.07    -0.26   0.26  -0.06
    28   1     0.11  -0.01  -0.24     0.01   0.04  -0.19     0.12  -0.03  -0.13
    29   1     0.06  -0.04  -0.22     0.02   0.07  -0.06    -0.12  -0.06   0.28
                      4                      5                      6
                      A                      A                      A
 Frequencies --    215.0809               251.6097               266.6511
 Red. masses --      1.0610                 1.1318                 1.0653
 Frc consts  --      0.0289                 0.0422                 0.0446
 IR Inten    --      0.0052                 0.8646                 0.0008
  Atom  AN      X      Y      Z        X      Y      Z        X      Y      Z
     1   6     0.01  -0.00  -0.00     0.00  -0.02   0.02     0.01   0.00  -0.00
     2   6    -0.00   0.01   0.02     0.01  -0.01  -0.01    -0.00   0.01   0.00
     3   6     0.01   0.01   0.01    -0.01  -0.00   0.00    -0.00   0.01  -0.00
     4   7     0.00  -0.00   0.00    -0.00  -0.01   0.01    -0.00   0.00   0.00
     5   6     0.01  -0.01  -0.01     0.01  -0.00   0.00    -0.00  -0.01   0.00
     6   6    -0.00  -0.01  -0.02    -0.01  -0.01  -0.01    -0.00  -0.01  -0.00
     7   6    -0.02  -0.02  -0.01     0.04   0.03  -0.00    -0.02  -0.04   0.00
     8   6     0.02   0.01  -0.01     0.02  -0.00   0.02     0.01   0.00  -0.00
     9   8    -0.01  -0.00  -0.00     0.00  -0.02  -0.04     0.02   0.00   0.00
    10   6    -0.02   0.02   0.01    -0.04   0.03  -0.00    -0.02   0.04  -0.00
    11   6     0.02  -0.01   0.01    -0.02  -0.00   0.02     0.01  -0.00   0.00
    12   1     0.01  -0.00  -0.00     0.00  -0.01   0.05     0.02   0.00  -0.00
    13   1     0.04   0.00  -0.00     0.00  -0.05   0.02     0.02   0.00  -0.00
    14   1     0.01   0.01   0.05     0.00  -0.00  -0.05     0.01   0.02   0.02
    15   1    -0.03   0.02   0.02     0.04  -0.02  -0.01    -0.01   0.03   0.01
    16   1    -0.03  -0.02  -0.02    -0.04  -0.02  -0.01    -0.01  -0.03  -0.01
    17   1     0.01  -0.01  -0.05    -0.00  -0.00  -0.05     0.01  -0.02  -0.02
    18   1     0.30  -0.08  -0.12     0.32   0.00  -0.04     0.12  -0.07  -0.07
    19   1    -0.14   0.30   0.08    -0.05   0.31   0.00    -0.07   0.10   0.04
    20   1    -0.26  -0.30   0.03    -0.12  -0.16   0.03    -0.12  -0.17   0.03
    21   1     0.11   0.17  -0.05     0.18   0.22  -0.04    -0.16  -0.30   0.07
    22   1     0.06  -0.08   0.14     0.10  -0.15   0.26    -0.10   0.23  -0.28
    23   1    -0.11  -0.05  -0.12    -0.19  -0.08  -0.13     0.31   0.11   0.20
    24   1    -0.14  -0.30  -0.08     0.05   0.31   0.00    -0.07  -0.10  -0.04
    25   1     0.29   0.08   0.12    -0.32   0.00  -0.04     0.12   0.07   0.07
    26   1    -0.26   0.30  -0.03     0.12  -0.16   0.03    -0.12   0.17  -0.03
    27   1     0.11  -0.17   0.05    -0.18   0.22  -0.04    -0.16   0.30  -0.07
    28   1    -0.11   0.05   0.12     0.19  -0.08  -0.13     0.31  -0.11  -0.20
    29   1     0.06   0.08  -0.14    -0.10  -0.15   0.26    -0.10  -0.23   0.28
                      7                      8                      9
                      A                      A                      A
 Frequencies --    280.3710               301.1644               301.3622
 Red. masses --      1.3600                 2.1096                 1.9999
 Frc consts  --      0.0630                 0.1127                 0.1070
 IR Inten    --      0.8314                 0.0063                 0.0839
  Atom  AN      X      Y      Z        X      Y      Z        X      Y      Z
     1   6    -0.00  -0.02   0.02     0.00  -0.10   0.21    -0.04  -0.00   0.00
     2   6     0.02  -0.02  -0.01     0.03   0.00  -0.01     0.02  -0.03  -0.09
     3   6     0.00  -0.01  -0.01    -0.00  -0.00  -0.06    -0.01  -0.00  -0.04
     4   7    -0.00  -0.04  -0.02     0.00  -0.01  -0.06    -0.01  -0.00  -0.00
     5   6    -0.00  -0.01  -0.01     0.00  -0.00  -0.06    -0.01   0.00   0.04
     6   6    -0.02  -0.02  -0.01    -0.03   0.00  -0.01     0.02   0.03   0.09
     7   6    -0.01  -0.00  -0.01    -0.03   0.11  -0.04     0.11   0.10   0.02
     8   6     0.08   0.07   0.01     0.02  -0.05   0.01    -0.08  -0.07   0.03
     9   8     0.00  -0.04   0.04     0.00  -0.01   0.01    -0.04  -0.00   0.00
    10   6     0.01  -0.00  -0.01     0.02   0.11  -0.04     0.11  -0.10  -0.02
    11   6    -0.08   0.07   0.01    -0.02  -0.05   0.01    -0.08   0.07  -0.03
    12   1    -0.00  -0.01   0.06     0.00   0.01   0.51    -0.03   0.00   0.00
    13   1    -0.00  -0.06   0.02     0.00  -0.41   0.23    -0.13  -0.00   0.00
    14   1     0.01  -0.02  -0.05    -0.00  -0.01  -0.07    -0.02  -0.02  -0.20
    15   1     0.05  -0.02  -0.01     0.15   0.08  -0.01     0.13  -0.09  -0.09
    16   1    -0.05  -0.02  -0.01    -0.15   0.08  -0.01     0.13   0.09   0.09
    17   1    -0.01  -0.02  -0.05     0.00  -0.02  -0.07    -0.02   0.02   0.20
    18   1     0.21  -0.04  -0.07    -0.14   0.16   0.09     0.37   0.09   0.07
    19   1    -0.08   0.21   0.01     0.01   0.00  -0.08     0.04   0.33  -0.10
    20   1    -0.14  -0.18   0.02     0.05   0.26  -0.12     0.04  -0.01   0.06
    21   1     0.01  -0.16   0.05     0.06  -0.11   0.00    -0.16  -0.13   0.05
    22   1    -0.04   0.30  -0.14     0.03  -0.06   0.01    -0.05  -0.12  -0.08
    23   1     0.36   0.15   0.15     0.00  -0.03   0.08    -0.11  -0.06   0.08
    24   1     0.08   0.21   0.01    -0.01   0.00  -0.09     0.04  -0.33   0.10
    25   1    -0.21  -0.04  -0.07     0.14   0.16   0.09     0.37  -0.09  -0.07
    26   1     0.14  -0.18   0.02    -0.05   0.26  -0.12     0.04   0.01  -0.06
    27   1    -0.01  -0.16   0.05    -0.06  -0.12   0.00    -0.16   0.13  -0.05
    28   1    -0.36   0.15   0.15    -0.00  -0.03   0.08    -0.11   0.06  -0.08
    29   1     0.04   0.30  -0.14    -0.03  -0.06   0.01    -0.05   0.12   0.08
                     10                     11                     12
                      A                      A                      A
 Frequencies --    316.6632               331.3685               342.3158
 Red. masses --      2.6996                 1.8298                 2.8226
 Frc consts  --      0.1595                 0.1184                 0.1949
 IR Inten    --      1.1616                 0.1005                 2.4313
  Atom  AN      X      Y      Z        X      Y      Z        X      Y      Z
     1   6    -0.11   0.00   0.00    -0.00  -0.03  -0.03     0.00  -0.02  -0.00
     2   6    -0.13   0.05   0.02    -0.01  -0.02  -0.02    -0.07   0.06  -0.01
     3   6    -0.00   0.03  -0.05    -0.04  -0.01   0.01    -0.05   0.05  -0.04
     4   7     0.00   0.00  -0.00    -0.00  -0.02   0.03     0.00   0.13  -0.07
     5   6    -0.00  -0.03   0.05     0.04  -0.01   0.01     0.05   0.05  -0.04
     6   6    -0.13  -0.05  -0.02     0.01  -0.02  -0.02     0.07   0.06  -0.01
     7   6     0.14  -0.10   0.02     0.12  -0.01  -0.01     0.07  -0.09  -0.05
     8   6     0.06  -0.00   0.10     0.12   0.07   0.02     0.05  -0.12   0.09
     9   8    -0.08   0.00   0.00    -0.00  -0.02  -0.00     0.00   0.15   0.03
    10   6     0.14   0.10  -0.02    -0.12  -0.01  -0.01    -0.07  -0.09  -0.05
    11   6     0.06   0.00  -0.10    -0.12   0.07   0.02    -0.05  -0.12   0.09
    12   1    -0.05   0.00   0.00    -0.00  -0.03  -0.03     0.00   0.02   0.09
    13   1    -0.08  -0.00   0.00    -0.00  -0.03  -0.03    -0.00  -0.11   0.00
    14   1    -0.12  -0.02   0.17     0.00   0.00  -0.03    -0.02   0.10   0.07
    15   1    -0.25   0.17   0.02    -0.01  -0.04  -0.02    -0.13   0.09  -0.01
    16   1    -0.25  -0.17  -0.02     0.01  -0.04  -0.02     0.13   0.09  -0.01
    17   1    -0.12   0.02  -0.17    -0.00   0.00  -0.03     0.02   0.10   0.07
    18   1     0.18  -0.12  -0.05    -0.12   0.03   0.06     0.14  -0.14  -0.20
    19   1     0.17  -0.13  -0.11     0.21  -0.28  -0.12     0.05  -0.04  -0.04
    20   1     0.25  -0.13   0.15     0.33   0.19  -0.00     0.04  -0.22   0.05
    21   1     0.15  -0.02   0.07     0.25   0.16  -0.02     0.10  -0.31   0.08
    22   1     0.05   0.01   0.18     0.10   0.09   0.19     0.07  -0.14   0.04
    23   1     0.05   0.00   0.12     0.11   0.04  -0.05     0.01  -0.05   0.30
    24   1     0.17   0.13   0.11    -0.21  -0.28  -0.12    -0.05  -0.04  -0.04
    25   1     0.18   0.12   0.05     0.12   0.03   0.06    -0.14  -0.14  -0.20
    26   1     0.25   0.13  -0.15    -0.33   0.19  -0.00    -0.04  -0.22   0.05
    27   1     0.15   0.02  -0.07    -0.25   0.16  -0.02    -0.10  -0.31   0.08
    28   1     0.05  -0.00  -0.12    -0.11   0.04  -0.05    -0.01  -0.05   0.30
    29   1     0.05  -0.01  -0.18    -0.10   0.09   0.19    -0.07  -0.14   0.04
                     13                     14                     15
                      A                      A                      A
 Frequencies --    397.9722               417.6050               419.1396
 Red. masses --      3.4507                 2.5121                 1.8333
 Frc consts  --      0.3220                 0.2581                 0.1898
 IR Inten    --     15.2545                 2.7317                 1.3931
  Atom  AN      X      Y      Z        X      Y      Z        X      Y      Z
     1   6    -0.09   0.00  -0.00    -0.07  -0.00   0.00    -0.00   0.03  -0.03
     2   6    -0.05  -0.06   0.02     0.01  -0.07  -0.03    -0.07   0.02   0.11
     3   6     0.01  -0.05   0.03    -0.00  -0.00   0.12    -0.01  -0.04  -0.03
     4   7     0.06   0.00   0.00    -0.03   0.00   0.00    -0.00  -0.06  -0.06
     5   6     0.01   0.05  -0.03    -0.00   0.00  -0.12     0.01  -0.04  -0.03
     6   6    -0.05   0.06  -0.02     0.01   0.07   0.03     0.07   0.02   0.11
     7   6    -0.03  -0.08  -0.02    -0.02   0.00  -0.14     0.01   0.07  -0.04
     8   6    -0.07  -0.15   0.04     0.11  -0.06   0.04     0.04  -0.03  -0.02
     9   8     0.30  -0.00   0.00    -0.11   0.00  -0.00    -0.00  -0.06   0.01
    10   6    -0.03   0.08   0.02    -0.02  -0.00   0.14    -0.01   0.07  -0.04
    11   6    -0.07   0.15  -0.04     0.11   0.06  -0.04    -0.04  -0.03  -0.02
    12   1    -0.16   0.00  -0.00    -0.11   0.00   0.00    -0.00  -0.04  -0.22
    13   1    -0.08   0.00  -0.00    -0.11  -0.00   0.00    -0.00   0.25  -0.05
    14   1    -0.07  -0.12   0.03    -0.05  -0.04  -0.24     0.01  -0.02   0.40
    15   1    -0.07  -0.05   0.02     0.16  -0.25  -0.03    -0.32   0.19   0.12
    16   1    -0.07   0.05  -0.02     0.16   0.25   0.03     0.32   0.19   0.12
    17   1    -0.07   0.12  -0.03    -0.05   0.04   0.24    -0.01  -0.02   0.40
    18   1    -0.08  -0.12  -0.17    -0.03   0.00  -0.14     0.08   0.11   0.10
    19   1    -0.02  -0.13   0.06    -0.03   0.00  -0.12    -0.00   0.15  -0.09
    20   1    -0.04  -0.14   0.03    -0.03   0.00  -0.15    -0.01   0.12  -0.11
    21   1    -0.06  -0.21   0.04     0.28  -0.22  -0.01     0.05  -0.06  -0.03
    22   1     0.03  -0.32   0.01     0.08  -0.01   0.13     0.03  -0.02  -0.02
    23   1    -0.27  -0.13   0.15     0.11   0.00   0.21     0.06  -0.03   0.00
    24   1    -0.02   0.13  -0.06    -0.03  -0.00   0.12     0.00   0.15  -0.09
    25   1    -0.08   0.12   0.17    -0.03  -0.00   0.14    -0.08   0.11   0.10
    26   1    -0.04   0.14  -0.03    -0.03  -0.00   0.15     0.01   0.12  -0.11
    27   1    -0.06   0.21  -0.04     0.28   0.22   0.01    -0.05  -0.06  -0.03
    28   1    -0.27   0.13  -0.15     0.11  -0.00  -0.21    -0.06  -0.03   0.00
    29   1     0.03   0.32  -0.01     0.08   0.01  -0.13    -0.03  -0.02  -0.02
                     16                     17                     18
                      A                      A                      A
 Frequencies --    466.6198               484.3498               556.7637
 Red. masses --      3.1486                 3.1229                 3.2660
 Frc consts  --      0.4039                 0.4316                 0.5965
 IR Inten    --      0.8088                 1.2290                14.2760
  Atom  AN      X      Y      Z        X      Y      Z        X      Y      Z
     1   6     0.00   0.25   0.06     0.14  -0.00   0.00     0.02   0.00   0.00
     2   6     0.11   0.07   0.01     0.10  -0.06   0.06    -0.05   0.16  -0.09
     3   6     0.09   0.01  -0.03    -0.12  -0.08  -0.00    -0.11   0.12   0.03
     4   7    -0.00  -0.11  -0.02    -0.11   0.00  -0.00    -0.06   0.00  -0.00
     5   6    -0.09   0.01  -0.03    -0.12   0.08   0.00    -0.11  -0.12  -0.03
     6   6    -0.11   0.07   0.01     0.10   0.06  -0.06    -0.05  -0.16   0.09
     7   6     0.04  -0.03  -0.08     0.04  -0.03  -0.06    -0.01   0.02  -0.08
     8   6    -0.04  -0.02   0.09    -0.09   0.10   0.13     0.02  -0.01   0.00
     9   8    -0.00  -0.13  -0.00     0.05  -0.00   0.00     0.21  -0.00   0.00
    10   6    -0.04  -0.03  -0.08     0.04   0.03   0.06    -0.01  -0.02   0.08
    11   6     0.04  -0.02   0.09    -0.09  -0.10  -0.13     0.02   0.01  -0.00
    12   1     0.00   0.18  -0.13    -0.01  -0.00   0.00     0.27  -0.00  -0.00
    13   1     0.00   0.40   0.05     0.25  -0.00   0.00    -0.09   0.00  -0.00
    14   1    -0.01  -0.04  -0.13     0.14   0.04   0.02    -0.03   0.25  -0.18
    15   1     0.25   0.06   0.01     0.12  -0.06   0.06     0.04   0.08  -0.09
    16   1    -0.25   0.06   0.01     0.12   0.06  -0.06     0.04  -0.08   0.09
    17   1     0.01  -0.04  -0.13     0.14  -0.04  -0.02    -0.03  -0.25   0.18
    18   1     0.04  -0.04  -0.12     0.10  -0.08  -0.20     0.09   0.08   0.12
    19   1     0.07  -0.09  -0.22     0.07  -0.06  -0.22    -0.02   0.11  -0.26
    20   1     0.15  -0.02   0.02     0.17  -0.11   0.16     0.04   0.12  -0.12
    21   1     0.07  -0.14   0.06     0.04   0.07   0.09     0.18   0.06  -0.05
    22   1    -0.03  -0.05   0.14    -0.12   0.14   0.23    -0.06   0.13   0.18
    23   1    -0.11   0.02   0.22    -0.08   0.12   0.17     0.13  -0.01  -0.07
    24   1    -0.07  -0.09  -0.22     0.07   0.06   0.22    -0.02  -0.11   0.26
    25   1    -0.04  -0.04  -0.12     0.10   0.08   0.20     0.09  -0.08  -0.12
    26   1    -0.15  -0.02   0.02     0.17   0.11  -0.16     0.04  -0.12   0.12
    27   1    -0.07  -0.14   0.06     0.04  -0.07  -0.09     0.18  -0.06   0.05
    28   1     0.11   0.02   0.22    -0.08  -0.12  -0.17     0.13   0.01   0.07
    29   1     0.03  -0.05   0.14    -0.12  -0.14  -0.23    -0.06  -0.13  -0.18
                     19                     20                     21
                      A                      A                      A
 Frequencies --    578.1864               592.3859               660.7869
 Red. masses --      4.1336                 2.0603                 3.3667
 Frc consts  --      0.8142                 0.4260                 0.8661
 IR Inten    --      9.4229                 0.7859                 3.3622
  Atom  AN      X      Y      Z        X      Y      Z        X      Y      Z
     1   6     0.00   0.07   0.01     0.00   0.11   0.07    -0.00  -0.06   0.04
     2   6    -0.03   0.10  -0.04     0.04  -0.02   0.04     0.06  -0.13   0.09
     3   6    -0.07   0.02  -0.06    -0.09  -0.03   0.01     0.07  -0.04  -0.04
     4   7    -0.00  -0.04   0.39     0.00   0.04  -0.06    -0.00   0.13   0.16
     5   6     0.07   0.02  -0.06     0.09  -0.03   0.01    -0.07  -0.04  -0.04
     6   6     0.03   0.10  -0.04    -0.04  -0.02   0.04    -0.06  -0.13   0.09
     7   6    -0.07  -0.02  -0.04     0.01   0.00   0.06    -0.05   0.00  -0.14
     8   6     0.10  -0.05  -0.05     0.09  -0.07  -0.08    -0.01   0.01   0.02
     9   8     0.00  -0.08  -0.05    -0.00   0.05   0.01     0.00   0.16  -0.01
    10   6     0.07  -0.02  -0.04    -0.01   0.00   0.06     0.05   0.00  -0.14
    11   6    -0.10  -0.05  -0.05    -0.09  -0.07  -0.08     0.01   0.01   0.02
    12   1     0.00   0.12   0.15     0.00  -0.02  -0.27     0.00  -0.22  -0.38
    13   1    -0.00  -0.07   0.02     0.00   0.45   0.05     0.00   0.36   0.01
    14   1    -0.01   0.09   0.04    -0.05   0.03  -0.27     0.02  -0.18   0.04
    15   1    -0.07   0.19  -0.04     0.32  -0.13   0.04     0.12  -0.10   0.09
    16   1     0.07   0.19  -0.04    -0.32  -0.13   0.04    -0.12  -0.10   0.09
    17   1     0.01   0.09   0.04     0.05   0.03  -0.27    -0.02  -0.18   0.04
    18   1    -0.22  -0.04  -0.15    -0.01   0.03   0.13    -0.04   0.02  -0.09
    19   1    -0.09  -0.06   0.26    -0.01   0.04   0.14    -0.06   0.04  -0.19
    20   1    -0.23  -0.07  -0.15    -0.06   0.04  -0.05    -0.06   0.04  -0.19
    21   1     0.17  -0.10  -0.07     0.03  -0.06  -0.06     0.15   0.00  -0.03
    22   1     0.11  -0.07  -0.02     0.12  -0.10  -0.14    -0.08   0.13   0.18
    23   1     0.07  -0.04   0.01     0.08  -0.08  -0.09     0.07   0.03   0.04
    24   1     0.09  -0.06   0.26     0.01   0.04   0.14     0.06   0.04  -0.19
    25   1     0.22  -0.04  -0.15     0.01   0.03   0.13     0.04   0.02  -0.09
    26   1     0.23  -0.07  -0.15     0.06   0.04  -0.05     0.06   0.04  -0.19
    27   1    -0.17  -0.10  -0.07    -0.03  -0.06  -0.06    -0.15   0.00  -0.03
    28   1    -0.07  -0.04   0.01    -0.08  -0.08  -0.09    -0.07   0.03   0.04
    29   1    -0.11  -0.07  -0.02    -0.12  -0.10  -0.14     0.08   0.13   0.18
                     22                     23                     24
                      A                      A                      A
 Frequencies --    812.5909               827.2755               880.9527
 Red. masses --      2.4914                 2.1189                 1.4927
 Frc consts  --      0.9693                 0.8544                 0.6825
 IR Inten    --      0.4414                 3.4130                 1.8627
  Atom  AN      X      Y      Z        X      Y      Z        X      Y      Z
     1   6     0.04   0.00   0.00     0.00   0.14  -0.02    -0.00  -0.00  -0.00
     2   6    -0.01   0.07  -0.11     0.02   0.02  -0.05     0.06  -0.08  -0.07
     3   6     0.09  -0.05  -0.02     0.11  -0.09  -0.01    -0.02   0.01  -0.02
     4   7     0.10  -0.00   0.00    -0.00   0.05   0.02    -0.07   0.00  -0.00
     5   6     0.09   0.05   0.02    -0.11  -0.09  -0.01    -0.02  -0.01   0.02
     6   6    -0.01  -0.07   0.11    -0.02   0.02  -0.05     0.06   0.08   0.07
     7   6    -0.02   0.02  -0.14    -0.01  -0.03   0.07    -0.02  -0.02  -0.01
     8   6    -0.05   0.07   0.06     0.02  -0.06  -0.04     0.02  -0.03  -0.02
     9   8    -0.04   0.00  -0.00     0.00   0.08   0.00     0.01   0.00   0.00
    10   6    -0.02  -0.02   0.14     0.01  -0.03   0.07    -0.02   0.02   0.01
    11   6    -0.05  -0.07  -0.06    -0.02  -0.06  -0.04     0.02   0.03   0.02
    12   1     0.29  -0.00   0.00    -0.00   0.27   0.34    -0.13   0.00  -0.00
    13   1    -0.19   0.00  -0.00    -0.00  -0.26   0.01    -0.30   0.00  -0.00
    14   1     0.06   0.04   0.14    -0.02  -0.14   0.09     0.21  -0.11   0.38
    15   1    -0.21   0.19  -0.10    -0.13   0.06  -0.05    -0.36   0.13  -0.07
    16   1    -0.21  -0.19   0.10     0.13   0.06  -0.05    -0.36  -0.13   0.07
    17   1     0.06  -0.04  -0.14     0.02  -0.14   0.09     0.21   0.11  -0.38
    18   1    -0.11   0.00  -0.22     0.11   0.02   0.24     0.06   0.02   0.12
    19   1    -0.02  -0.02  -0.01    -0.01   0.06  -0.13    -0.03   0.05  -0.13
    20   1    -0.10  -0.00  -0.21     0.07   0.05   0.08     0.03   0.06  -0.04
    21   1    -0.19   0.01   0.12     0.19   0.00  -0.10     0.08  -0.02  -0.04
    22   1     0.04  -0.09  -0.07    -0.10   0.14   0.13    -0.01   0.03   0.03
    23   1    -0.22   0.07   0.14     0.23  -0.06  -0.13     0.09  -0.03  -0.04
    24   1    -0.02   0.02   0.01     0.01   0.06  -0.13    -0.03  -0.05   0.13
    25   1    -0.11  -0.00   0.22    -0.11   0.02   0.24     0.06  -0.02  -0.12
    26   1    -0.10   0.00   0.21    -0.07   0.05   0.08     0.03  -0.06   0.04
    27   1    -0.19  -0.01  -0.12    -0.19   0.00  -0.10     0.08   0.02   0.04
    28   1    -0.22  -0.07  -0.14    -0.23  -0.06  -0.13     0.09   0.03   0.04
    29   1     0.04   0.09   0.07     0.10   0.14   0.13    -0.01  -0.03  -0.03
                     25                     26                     27
                      A                      A                      A
 Frequencies --    906.9755               948.1382               957.8413
 Red. masses --      2.2707                 1.8728                 1.5807
 Frc consts  --      1.1005                 0.9920                 0.8545
 IR Inten    --      0.2515                 0.0859                 1.9276
  Atom  AN      X      Y      Z        X      Y      Z        X      Y      Z
     1   6     0.00   0.09   0.04     0.07  -0.00   0.00     0.00  -0.03   0.04
     2   6    -0.18   0.01  -0.00    -0.03   0.04  -0.06    -0.04   0.02  -0.02
     3   6    -0.04  -0.05   0.05    -0.05  -0.09   0.02    -0.01  -0.02  -0.07
     4   7    -0.00  -0.00   0.00    -0.06   0.00  -0.00    -0.00  -0.00  -0.01
     5   6     0.04  -0.05   0.05    -0.05   0.09  -0.02     0.01  -0.02  -0.07
     6   6     0.18   0.01  -0.00    -0.03  -0.04   0.06     0.04   0.02  -0.02
     7   6    -0.02  -0.03  -0.09    -0.02   0.06   0.05     0.07  -0.03   0.05
     8   6    -0.03   0.00   0.06     0.07  -0.00  -0.07    -0.09   0.02  -0.01
     9   8    -0.00  -0.01   0.00    -0.00  -0.00  -0.00     0.00  -0.01   0.00
    10   6     0.02  -0.03  -0.09    -0.02  -0.06  -0.05    -0.07  -0.03   0.05
    11   6     0.03   0.00   0.06     0.07   0.00   0.07     0.09   0.02  -0.01
    12   1    -0.00   0.14   0.16     0.27  -0.00   0.00     0.00  -0.10  -0.14
    13   1    -0.00   0.02   0.05    -0.03   0.00   0.00    -0.00   0.18   0.03
    14   1    -0.30  -0.00  -0.30     0.04   0.12   0.00    -0.06   0.01  -0.06
    15   1     0.04  -0.21  -0.01    -0.10   0.01  -0.06     0.05   0.10  -0.02
    16   1    -0.04  -0.21  -0.01    -0.10  -0.01   0.06    -0.05   0.10  -0.02
    17   1     0.30  -0.00  -0.30     0.04  -0.12  -0.00     0.06   0.01  -0.06
    18   1     0.02   0.03   0.08    -0.01  -0.04  -0.26    -0.05   0.03   0.20
    19   1    -0.05   0.06  -0.15     0.04  -0.10  -0.01     0.01   0.05   0.31
    20   1    -0.04   0.08  -0.20     0.12  -0.11   0.36    -0.13   0.03  -0.21
    21   1    -0.13   0.18   0.08     0.10  -0.18  -0.08     0.22  -0.10  -0.10
    22   1    -0.09   0.11   0.02     0.18  -0.19  -0.12    -0.16   0.14   0.25
    23   1     0.12  -0.04  -0.13    -0.13   0.03   0.10    -0.01   0.10   0.18
    24   1     0.05   0.06  -0.15     0.04   0.10   0.01    -0.01   0.05   0.31
    25   1    -0.02   0.03   0.08    -0.01   0.04   0.26     0.05   0.03   0.20
    26   1     0.04   0.08  -0.20     0.12   0.11  -0.36     0.13   0.03  -0.21
    27   1     0.13   0.18   0.08     0.10   0.18   0.08    -0.21  -0.10  -0.10
    28   1    -0.12  -0.04  -0.13    -0.13  -0.03  -0.10     0.01   0.10   0.18
    29   1     0.09   0.11   0.02     0.18   0.19   0.12     0.16   0.14   0.25
                     28                     29                     30
                      A                      A                      A
 Frequencies --    958.2209               983.8226              1003.6073
 Red. masses --      1.4449                 1.5494                 1.6449
 Frc consts  --      0.7817                 0.8836                 0.9762
 IR Inten    --      1.4379                 7.8546                11.2666
  Atom  AN      X      Y      Z        X      Y      Z        X      Y      Z
     1   6    -0.02  -0.00   0.00    -0.00  -0.08   0.09     0.00  -0.11  -0.04
     2   6     0.01  -0.01   0.02    -0.07   0.03  -0.04     0.06   0.10   0.00
     3   6    -0.00   0.00  -0.07     0.05   0.02  -0.02    -0.02  -0.03   0.03
     4   7     0.01  -0.00  -0.00     0.00  -0.00   0.01     0.00   0.00   0.00
     5   6    -0.00  -0.00   0.07    -0.05   0.02  -0.02     0.02  -0.03   0.03
     6   6     0.01   0.01  -0.02     0.07   0.03  -0.04    -0.06   0.10   0.00
     7   6    -0.07   0.02  -0.05    -0.03   0.05   0.05    -0.02  -0.05  -0.02
     8   6     0.06  -0.04   0.03    -0.00  -0.05  -0.01    -0.01  -0.04   0.03
     9   8    -0.00  -0.00   0.00    -0.00  -0.02   0.00    -0.00  -0.00   0.00
    10   6    -0.07  -0.02   0.05     0.03   0.05   0.05     0.02  -0.05  -0.02
    11   6     0.06   0.04  -0.03     0.00  -0.05  -0.01     0.01  -0.04   0.03
    12   1    -0.10  -0.00  -0.00    -0.00  -0.22  -0.30    -0.00  -0.14  -0.13
    13   1     0.07   0.00   0.00     0.00   0.33   0.06     0.00   0.02  -0.05
    14   1    -0.04  -0.05  -0.04    -0.10  -0.00  -0.07     0.23   0.42  -0.02
    15   1     0.08   0.04   0.02     0.07   0.17  -0.04     0.13   0.10   0.00
    16   1     0.08  -0.04  -0.02    -0.07   0.17  -0.04    -0.13   0.10   0.00
    17   1    -0.04   0.05   0.04     0.10  -0.00  -0.07    -0.23   0.42  -0.02
    18   1     0.07  -0.03  -0.16     0.03  -0.05  -0.21     0.07   0.02   0.21
    19   1    -0.02  -0.04  -0.33     0.03  -0.10  -0.11    -0.05   0.08  -0.16
    20   1     0.13  -0.02   0.18     0.14  -0.09   0.34     0.01   0.09  -0.13
    21   1    -0.25   0.20   0.12     0.05   0.07  -0.03    -0.05   0.12   0.03
    22   1     0.07  -0.04  -0.20    -0.08   0.11   0.04    -0.09   0.10   0.03
    23   1     0.11  -0.14  -0.27     0.18  -0.07  -0.14     0.16  -0.07  -0.14
    24   1    -0.02   0.04   0.33    -0.03  -0.10  -0.11     0.05   0.08  -0.16
    25   1     0.07   0.03   0.16    -0.03  -0.05  -0.21    -0.07   0.02   0.21
    26   1     0.13   0.02  -0.19    -0.14  -0.09   0.34    -0.01   0.09  -0.13
    27   1    -0.25  -0.20  -0.12    -0.05   0.07  -0.03     0.05   0.12   0.03
    28   1     0.11   0.14   0.27    -0.18  -0.07  -0.14    -0.16  -0.07  -0.14
    29   1     0.07   0.04   0.20     0.08   0.11   0.04     0.09   0.10   0.03
                     31                     32                     33
                      A                      A                      A
 Frequencies --   1017.9083              1019.3170              1072.3255
 Red. masses --      1.2829                 1.4454                 1.5984
 Frc consts  --      0.7832                 0.8848                 1.0829
 IR Inten    --      0.6404                 1.9183                 2.0684
  Atom  AN      X      Y      Z        X      Y      Z        X      Y      Z
     1   6     0.01   0.00   0.00     0.00   0.05   0.01    -0.00  -0.01  -0.09
     2   6    -0.01  -0.01   0.01     0.05  -0.02  -0.03    -0.01   0.02   0.09
     3   6    -0.01   0.00   0.00    -0.04  -0.03   0.01     0.01   0.03   0.04
     4   7     0.02  -0.00   0.00     0.00   0.00  -0.04     0.00  -0.01  -0.03
     5   6    -0.01  -0.00  -0.00     0.04  -0.03   0.01    -0.01   0.03   0.04
     6   6    -0.01   0.01  -0.01    -0.05  -0.02  -0.03     0.01   0.02   0.09
     7   6    -0.04  -0.07   0.01     0.05   0.04  -0.03     0.00   0.05  -0.02
     8   6     0.03   0.06  -0.02    -0.02  -0.04   0.06    -0.04  -0.04  -0.06
     9   8    -0.00  -0.00  -0.00     0.00   0.02   0.00    -0.00  -0.03   0.00
    10   6    -0.04   0.07  -0.01    -0.05   0.04  -0.03    -0.00   0.05  -0.02
    11   6     0.03  -0.06   0.02     0.02  -0.04   0.06     0.04  -0.04  -0.06
    12   1    -0.05   0.00   0.00    -0.00   0.06   0.04    -0.00   0.08   0.15
    13   1     0.15  -0.00   0.00     0.00   0.01   0.02    -0.00  -0.25  -0.07
    14   1    -0.03  -0.01  -0.02     0.08  -0.07   0.14     0.01   0.18  -0.13
    15   1     0.06   0.04   0.01    -0.07   0.12  -0.02     0.10  -0.29   0.09
    16   1     0.06  -0.04  -0.01     0.07   0.12  -0.02    -0.10  -0.29   0.09
    17   1    -0.03   0.01   0.02    -0.08  -0.07   0.14    -0.01   0.18  -0.13
    18   1     0.16   0.03   0.34    -0.16  -0.01  -0.24    -0.08  -0.01  -0.23
    19   1    -0.07   0.12  -0.28     0.05  -0.08   0.31     0.03  -0.06   0.08
    20   1     0.08   0.12  -0.06    -0.13  -0.08  -0.08    -0.02  -0.07   0.08
    21   1    -0.05  -0.14   0.02    -0.13   0.22   0.08     0.27  -0.09  -0.15
    22   1     0.17  -0.19  -0.11    -0.13   0.15   0.02    -0.12   0.11   0.19
    23   1    -0.26   0.09   0.17     0.21  -0.11  -0.22     0.15   0.01   0.03
    24   1    -0.07  -0.12   0.28    -0.05  -0.08   0.31    -0.03  -0.06   0.08
    25   1     0.16  -0.03  -0.34     0.16  -0.01  -0.24     0.08  -0.01  -0.23
    26   1     0.08  -0.12   0.06     0.13  -0.08  -0.08     0.02  -0.07   0.08
    27   1    -0.05   0.14  -0.02     0.13   0.22   0.08    -0.27  -0.09  -0.15
    28   1    -0.26  -0.09  -0.17    -0.21  -0.11  -0.22    -0.15   0.01   0.03
    29   1     0.17   0.19   0.11     0.13   0.15   0.02     0.12   0.11   0.19
                     34                     35                     36
                      A                      A                      A
 Frequencies --   1090.4104              1093.4285              1122.5642
 Red. masses --      1.5580                 2.1019                 1.3987
 Frc consts  --      1.0914                 1.4806                 1.0385
 IR Inten    --      0.8863                 8.4988                 4.7105
  Atom  AN      X      Y      Z        X      Y      Z        X      Y      Z
     1   6     0.11  -0.00   0.00     0.08  -0.00   0.00     0.04  -0.00   0.00
     2   6    -0.07  -0.05  -0.03    -0.04  -0.04  -0.02    -0.02  -0.02   0.01
     3   6     0.02  -0.03  -0.03     0.01   0.01   0.04    -0.01   0.03   0.08
     4   7    -0.10   0.00  -0.00     0.22  -0.00   0.00    -0.03   0.00  -0.00
     5   6     0.02   0.03   0.03     0.01  -0.01  -0.04    -0.01  -0.03  -0.08
     6   6    -0.07   0.05   0.03    -0.04   0.04   0.02    -0.02   0.02  -0.01
     7   6     0.02  -0.02  -0.02    -0.07  -0.00   0.03     0.02  -0.01   0.03
     8   6     0.01  -0.03   0.01    -0.07  -0.03  -0.01     0.03   0.02   0.07
     9   8     0.01  -0.00   0.00    -0.04   0.00  -0.00     0.01  -0.00   0.00
    10   6     0.02   0.02   0.02    -0.07   0.00  -0.03     0.02   0.01  -0.03
    11   6     0.01   0.03  -0.01    -0.07   0.03   0.01     0.03  -0.02  -0.07
    12   1     0.53  -0.00   0.00     0.37  -0.00   0.00     0.23  -0.00   0.00
    13   1     0.42  -0.00   0.00     0.02  -0.00  -0.00    -0.31   0.00  -0.00
    14   1    -0.24  -0.36  -0.04    -0.03  -0.05   0.01     0.09   0.17   0.02
    15   1    -0.06  -0.03  -0.03    -0.17  -0.22  -0.02    -0.20  -0.39   0.01
    16   1    -0.06   0.03   0.03    -0.17   0.22   0.02    -0.20   0.39  -0.01
    17   1    -0.24   0.36   0.04    -0.03   0.05  -0.01     0.09  -0.17  -0.02
    18   1    -0.02   0.02   0.09     0.12  -0.02   0.01     0.01   0.00   0.09
    19   1    -0.01   0.05   0.05    -0.03  -0.01  -0.28     0.01   0.00   0.09
    20   1    -0.05   0.04  -0.14     0.15   0.01   0.23    -0.01   0.00  -0.01
    21   1    -0.01   0.05   0.01     0.14   0.01  -0.07    -0.26   0.14   0.15
    22   1    -0.00   0.02  -0.03    -0.18   0.16   0.19     0.07  -0.04  -0.17
    23   1     0.08  -0.05  -0.07     0.12   0.01   0.02    -0.06  -0.05  -0.10
    24   1    -0.01  -0.05  -0.05    -0.03   0.01   0.28     0.01  -0.00  -0.09
    25   1    -0.02  -0.02  -0.09     0.12   0.02  -0.01     0.01  -0.00  -0.09
    26   1    -0.05  -0.04   0.14     0.15  -0.01  -0.23    -0.01  -0.00   0.01
    27   1    -0.01  -0.05  -0.01     0.14  -0.01   0.07    -0.26  -0.14  -0.15
    28   1     0.08   0.05   0.07     0.12  -0.01  -0.02    -0.06   0.05   0.10
    29   1    -0.00  -0.02   0.03    -0.18  -0.16  -0.19     0.07   0.04   0.17
                     37                     38                     39
                      A                      A                      A
 Frequencies --   1187.1125              1222.2159              1246.9719
 Red. masses --      2.1159                 2.3361                 3.0477
 Frc consts  --      1.7568                 2.0561                 2.7922
 IR Inten    --     24.7596                 9.8400                 8.9389
  Atom  AN      X      Y      Z        X      Y      Z        X      Y      Z
     1   6     0.10  -0.00   0.00     0.00  -0.07  -0.10    -0.00  -0.06   0.10
     2   6    -0.07  -0.08  -0.05    -0.03   0.06   0.08    -0.01   0.04  -0.08
     3   6    -0.11   0.03  -0.06     0.15  -0.02  -0.08     0.15   0.07   0.19
     4   7     0.12  -0.00   0.00    -0.00   0.00   0.01     0.00   0.01  -0.04
     5   6    -0.11  -0.03   0.06    -0.15  -0.02  -0.08    -0.15   0.07   0.19
     6   6    -0.07   0.08   0.05     0.03   0.06   0.08     0.01   0.04  -0.08
     7   6     0.04   0.01  -0.03     0.07   0.01   0.01     0.06  -0.03  -0.06
     8   6     0.03  -0.01  -0.01     0.06   0.00   0.05     0.04  -0.02  -0.05
     9   8    -0.01   0.00  -0.00     0.00   0.01  -0.00    -0.00  -0.02   0.00
    10   6     0.04  -0.01   0.03    -0.07   0.01   0.01    -0.06  -0.03  -0.06
    11   6     0.03   0.01   0.01    -0.06   0.00   0.05    -0.04  -0.02  -0.05
    12   1    -0.44   0.00  -0.00    -0.00  -0.03   0.01     0.00  -0.15  -0.13
    13   1     0.49  -0.00   0.00    -0.00  -0.18  -0.10    -0.00   0.24   0.08
    14   1     0.15   0.31  -0.02    -0.20  -0.09  -0.17    -0.00  -0.07   0.11
    15   1    -0.10  -0.02  -0.05     0.27   0.04   0.08    -0.19  -0.12  -0.08
    16   1    -0.10   0.02   0.05    -0.27   0.04   0.08     0.19  -0.12  -0.08
    17   1     0.15  -0.31   0.02     0.20  -0.09  -0.17     0.00  -0.07   0.11
    18   1    -0.13   0.02  -0.02    -0.12   0.03   0.05    -0.17   0.03   0.03
    19   1     0.02   0.00   0.15     0.04  -0.00   0.26    -0.01   0.10   0.14
    20   1    -0.12  -0.04  -0.15    -0.09  -0.06  -0.07    -0.16   0.01  -0.30
    21   1    -0.02  -0.04   0.00    -0.20   0.06   0.12     0.15  -0.15  -0.08
    22   1     0.06  -0.07  -0.06     0.11  -0.07  -0.21     0.12  -0.15  -0.06
    23   1     0.00  -0.04  -0.06    -0.07  -0.08  -0.15     0.08  -0.03  -0.07
    24   1     0.02  -0.00  -0.15    -0.04  -0.00   0.26     0.01   0.10   0.14
    25   1    -0.13  -0.02   0.02     0.12   0.03   0.05     0.17   0.03   0.03
    26   1    -0.12   0.04   0.15     0.09  -0.06  -0.07     0.16   0.01  -0.30
    27   1    -0.02   0.04  -0.00     0.20   0.06   0.12    -0.15  -0.15  -0.08
    28   1     0.00   0.04   0.06     0.07  -0.08  -0.15    -0.08  -0.03  -0.07
    29   1     0.06   0.07   0.06    -0.11  -0.07  -0.21    -0.12  -0.15  -0.06
                     40                     41                     42
                      A                      A                      A
 Frequencies --   1257.3684              1275.6818              1291.9450
 Red. masses --      2.0202                 1.9664                 2.6133
 Frc consts  --      1.8818                 1.8854                 2.5699
 IR Inten    --      4.1767                 4.2734                35.9296
  Atom  AN      X      Y      Z        X      Y      Z        X      Y      Z
     1   6     0.01  -0.00   0.00    -0.02   0.00  -0.00    -0.00  -0.00  -0.00
     2   6     0.02  -0.02  -0.05    -0.02   0.02  -0.08     0.03  -0.04   0.03
     3   6     0.02   0.17   0.06     0.05  -0.09   0.15    -0.02   0.22  -0.08
     4   7    -0.03   0.00  -0.00    -0.02   0.00  -0.00     0.00   0.01   0.01
     5   6     0.02  -0.17  -0.06     0.05   0.09  -0.15     0.02   0.22  -0.08
     6   6     0.02   0.02   0.05    -0.02  -0.02   0.08    -0.03  -0.04   0.03
     7   6    -0.01   0.07   0.01    -0.01  -0.02   0.03    -0.00  -0.07   0.02
     8   6    -0.00   0.05   0.01    -0.01  -0.03   0.05    -0.01  -0.07   0.03
     9   8     0.02  -0.00   0.00    -0.01   0.00  -0.00    -0.00  -0.07   0.00
    10   6    -0.01  -0.07  -0.01    -0.01   0.02  -0.03     0.00  -0.07   0.02
    11   6    -0.00  -0.05  -0.01    -0.01   0.03  -0.05     0.01  -0.07   0.03
    12   1    -0.28   0.00  -0.00    -0.30   0.00  -0.00    -0.00  -0.02  -0.03
    13   1     0.41  -0.00   0.00     0.52  -0.00   0.00     0.00  -0.07  -0.00
    14   1    -0.12  -0.33   0.07     0.09   0.17   0.03    -0.10  -0.28   0.03
    15   1    -0.09   0.04  -0.04     0.04   0.30  -0.07    -0.08  -0.21   0.03
    16   1    -0.09  -0.04   0.04     0.04  -0.30   0.07     0.08  -0.21   0.03
    17   1    -0.12   0.33  -0.07     0.09  -0.17  -0.03     0.10  -0.28   0.03
    18   1    -0.00   0.00  -0.16     0.09   0.01   0.15     0.06   0.01   0.24
    19   1     0.06  -0.15   0.03    -0.02   0.03   0.04    -0.07   0.16  -0.02
    20   1     0.01  -0.12   0.21     0.10   0.04   0.09     0.09   0.13  -0.08
    21   1    -0.12  -0.06   0.05    -0.07   0.19   0.06     0.06   0.20  -0.01
    22   1     0.03  -0.02   0.03    -0.09   0.13  -0.05    -0.10   0.12  -0.08
    23   1    -0.20   0.06   0.11     0.07  -0.07  -0.09     0.22  -0.10  -0.15
    24   1     0.06   0.15  -0.03    -0.02  -0.03  -0.04     0.07   0.16  -0.02
    25   1    -0.00  -0.00   0.16     0.09  -0.01  -0.15    -0.06   0.01   0.24
    26   1     0.01   0.12  -0.21     0.10  -0.04  -0.09    -0.09   0.13  -0.08
    27   1    -0.12   0.06  -0.05    -0.07  -0.19  -0.06    -0.06   0.20  -0.01
    28   1    -0.20  -0.06  -0.11     0.07   0.07   0.09    -0.22  -0.10  -0.15
    29   1     0.03   0.02  -0.03    -0.09  -0.13   0.05     0.10   0.12  -0.08
                     43                     44                     45
                      A                      A                      A
 Frequencies --   1314.9673              1338.5026              1385.1534
 Red. masses --      2.0684                 1.3029                 1.5124
 Frc consts  --      2.1072                 1.3753                 1.7096
 IR Inten    --     26.8300                 2.6455                 0.4199
  Atom  AN      X      Y      Z        X      Y      Z        X      Y      Z
     1   6     0.08  -0.00   0.00     0.00  -0.04  -0.08    -0.15   0.00  -0.00
     2   6    -0.06   0.01  -0.00     0.02   0.02   0.01    -0.00  -0.08   0.01
     3   6     0.15   0.01  -0.07    -0.05   0.01   0.07     0.03   0.05  -0.02
     4   7    -0.13   0.00  -0.00    -0.00  -0.00  -0.01    -0.03   0.00  -0.00
     5   6     0.15  -0.01   0.07     0.05   0.01   0.07     0.03  -0.05   0.02
     6   6    -0.06  -0.01   0.00    -0.02   0.02   0.01    -0.00   0.08  -0.01
     7   6    -0.04   0.00  -0.01    -0.01  -0.01  -0.01    -0.01   0.02  -0.03
     8   6    -0.03   0.00  -0.02    -0.02  -0.00  -0.02    -0.01   0.02  -0.00
     9   8     0.02  -0.00   0.00     0.00   0.00  -0.00     0.01   0.00   0.00
    10   6    -0.04  -0.00   0.01     0.01  -0.01  -0.01    -0.01  -0.02   0.03
    11   6    -0.03  -0.00   0.02     0.02  -0.00  -0.02    -0.01  -0.02   0.00
    12   1    -0.44   0.00  -0.00    -0.00  -0.02  -0.02     0.63  -0.00   0.00
    13   1     0.12  -0.00   0.00    -0.00  -0.14  -0.08     0.32  -0.00   0.00
    14   1     0.09   0.32  -0.06    -0.23  -0.38  -0.04     0.24   0.30   0.09
    15   1    -0.14  -0.37  -0.01     0.23   0.43   0.02     0.10   0.07   0.01
    16   1    -0.14   0.37   0.01    -0.23   0.43   0.02     0.10  -0.07  -0.01
    17   1     0.09  -0.32   0.06     0.23  -0.38  -0.04     0.24  -0.30  -0.09
    18   1     0.10  -0.03  -0.07     0.02  -0.02  -0.05     0.08   0.04   0.06
    19   1    -0.01  -0.03  -0.13    -0.02   0.03  -0.08     0.01  -0.10   0.09
    20   1     0.04   0.06   0.00    -0.00   0.05  -0.06     0.03  -0.06   0.09
    21   1     0.06   0.02  -0.04     0.06  -0.01  -0.04    -0.00  -0.05  -0.00
    22   1    -0.03  -0.01   0.12     0.01  -0.05   0.06     0.04  -0.07   0.05
    23   1     0.06   0.07   0.13     0.09   0.04   0.06     0.04   0.03   0.01
    24   1    -0.01   0.03   0.13     0.02   0.03  -0.08     0.01   0.10  -0.09
    25   1     0.10   0.03   0.07    -0.02  -0.02  -0.05     0.08  -0.04  -0.06
    26   1     0.04  -0.06  -0.00     0.00   0.05  -0.06     0.03   0.06  -0.09
    27   1     0.06  -0.02   0.04    -0.06  -0.01  -0.04    -0.00   0.05   0.00
    28   1     0.06  -0.07  -0.13    -0.09   0.04   0.06     0.04  -0.03  -0.01
    29   1    -0.03   0.01  -0.12    -0.01  -0.05   0.06     0.04   0.07  -0.05
                     46                     47                     48
                      A                      A                      A
 Frequencies --   1396.0373              1397.2334              1409.3014
 Red. masses --      1.2940                 1.3152                 1.4340
 Frc consts  --      1.4859                 1.5128                 1.6781
 IR Inten    --      0.1155                26.9968                16.6262
  Atom  AN      X      Y      Z        X      Y      Z        X      Y      Z
     1   6     0.05  -0.00   0.00    -0.00  -0.02   0.01     0.00   0.02  -0.01
     2   6    -0.01  -0.00   0.01     0.02   0.05  -0.01    -0.03  -0.05  -0.00
     3   6    -0.01  -0.01  -0.02    -0.01  -0.01   0.02     0.03   0.03   0.02
     4   7     0.00  -0.00  -0.00    -0.00  -0.01  -0.00     0.00   0.04  -0.01
     5   6    -0.01   0.01   0.02     0.01  -0.01   0.02    -0.03   0.03   0.02
     6   6    -0.01   0.00  -0.01    -0.02   0.05  -0.01     0.03  -0.05  -0.00
     7   6    -0.02   0.00  -0.08    -0.03   0.02  -0.08     0.01  -0.01   0.01
     8   6     0.04  -0.03  -0.03     0.02  -0.02  -0.03     0.07  -0.05  -0.05
     9   8    -0.00   0.00   0.00     0.00   0.01  -0.00    -0.00  -0.04   0.00
    10   6    -0.02  -0.00   0.08     0.03   0.02  -0.08    -0.01  -0.01   0.01
    11   6     0.04   0.03   0.03    -0.02  -0.02  -0.03    -0.07  -0.05  -0.05
    12   1    -0.08  -0.00  -0.00     0.00  -0.07  -0.10    -0.00   0.04   0.03
    13   1    -0.20  -0.00  -0.00     0.00  -0.03   0.01    -0.00  -0.02  -0.00
    14   1    -0.04  -0.02  -0.05    -0.09  -0.17   0.03     0.06   0.12  -0.03
    15   1     0.01   0.03   0.01    -0.06  -0.14  -0.01     0.08   0.19   0.00
    16   1     0.01  -0.03  -0.01     0.06  -0.14  -0.01    -0.08   0.19   0.00
    17   1    -0.04   0.02   0.05     0.09  -0.17   0.03    -0.06   0.12  -0.03
    18   1     0.14   0.11   0.29     0.18   0.12   0.29    -0.10  -0.02  -0.03
    19   1    -0.04  -0.09   0.34    -0.01  -0.17   0.30    -0.02   0.11  -0.04
    20   1     0.18  -0.10   0.23     0.14  -0.13   0.23    -0.01   0.02  -0.05
    21   1    -0.17   0.08   0.03    -0.14   0.05   0.02    -0.28   0.15   0.05
    22   1    -0.08   0.16   0.15    -0.05   0.10   0.13    -0.14   0.31   0.20
    23   1    -0.13   0.01   0.14    -0.08   0.02   0.11    -0.27   0.01   0.24
    24   1    -0.04   0.09  -0.34     0.01  -0.17   0.30     0.02   0.11  -0.04
    25   1     0.14  -0.11  -0.29    -0.18   0.12   0.29     0.10  -0.02  -0.03
    26   1     0.18   0.10  -0.23    -0.14  -0.13   0.23     0.01   0.02  -0.05
    27   1    -0.17  -0.08  -0.03     0.14   0.05   0.02     0.28   0.15   0.05
    28   1    -0.13  -0.01  -0.14     0.08   0.02   0.11     0.27   0.01   0.24
    29   1    -0.08  -0.16  -0.15     0.05   0.10   0.13     0.14   0.31   0.20
                     49                     50                     51
                      A                      A                      A
 Frequencies --   1412.8568              1419.8043              1422.2481
 Red. masses --      1.2939                 1.5695                 1.4779
 Frc consts  --      1.5218                 1.8641                 1.7613
 IR Inten    --     17.4602                 0.2184                 5.9986
  Atom  AN      X      Y      Z        X      Y      Z        X      Y      Z
     1   6    -0.06   0.00  -0.00    -0.11   0.00  -0.00    -0.00  -0.06   0.01
     2   6     0.02   0.01  -0.00     0.08   0.09  -0.01     0.05   0.10  -0.00
     3   6    -0.01  -0.01  -0.01    -0.03  -0.04  -0.02    -0.03  -0.04  -0.02
     4   7    -0.00   0.00  -0.00     0.02  -0.00   0.00     0.00   0.01   0.00
     5   6    -0.01   0.01   0.01    -0.03   0.04   0.02     0.03  -0.04  -0.02
     6   6     0.02  -0.01   0.00     0.08  -0.09   0.01    -0.05   0.10  -0.00
     7   6     0.02  -0.01   0.04    -0.00  -0.01  -0.04     0.01   0.01   0.06
     8   6     0.06  -0.04  -0.05    -0.01   0.00   0.00     0.02  -0.01  -0.01
     9   8    -0.00  -0.00   0.00    -0.01   0.00  -0.00    -0.00  -0.00   0.00
    10   6     0.02   0.01  -0.04    -0.00   0.01   0.04    -0.01   0.01   0.06
    11   6     0.06   0.04   0.05    -0.01  -0.00  -0.00    -0.02  -0.01  -0.01
    12   1     0.12   0.00   0.00    -0.04   0.00   0.00    -0.00  -0.07  -0.01
    13   1     0.21  -0.00   0.00     0.49  -0.00   0.00     0.00   0.10  -0.00
    14   1     0.05   0.03   0.06    -0.03  -0.11  -0.02    -0.15  -0.27   0.01
    15   1    -0.03  -0.10  -0.00    -0.32  -0.37  -0.02    -0.17  -0.33  -0.01
    16   1    -0.03   0.10   0.00    -0.32   0.37   0.02     0.17  -0.33  -0.01
    17   1     0.05  -0.03  -0.06    -0.04   0.11   0.02     0.15  -0.27   0.01
    18   1    -0.13  -0.05  -0.14    -0.02   0.05   0.15    -0.07  -0.09  -0.24
    19   1     0.00   0.11  -0.17    -0.04   0.05   0.12     0.03   0.04  -0.23
    20   1    -0.08   0.05  -0.12     0.08  -0.04   0.08    -0.12   0.08  -0.14
    21   1    -0.27   0.14   0.05     0.09   0.00  -0.03    -0.14   0.02   0.04
    22   1    -0.12   0.28   0.20     0.05  -0.10  -0.07    -0.06   0.13   0.11
    23   1    -0.25   0.01   0.23     0.10   0.01  -0.01    -0.12  -0.00   0.06
    24   1     0.00  -0.11   0.17    -0.04  -0.05  -0.12    -0.03   0.04  -0.23
    25   1    -0.13   0.05   0.14    -0.02  -0.05  -0.15     0.07  -0.09  -0.24
    26   1    -0.08  -0.05   0.12     0.08   0.04  -0.08     0.12   0.08  -0.14
    27   1    -0.27  -0.14  -0.05     0.09  -0.00   0.03     0.14   0.02   0.04
    28   1    -0.25  -0.01  -0.23     0.10  -0.01   0.01     0.12  -0.00   0.06
    29   1    -0.12  -0.28  -0.20     0.05   0.10   0.07     0.06   0.13   0.11
                     52                     53                     54
                      A                      A                      A
 Frequencies --   1462.3241              1468.2316              1470.0741
 Red. masses --      1.0557                 1.0580                 1.0727
 Frc consts  --      1.3301                 1.3438                 1.3659
 IR Inten    --      2.0766                 1.3784                 1.1359
  Atom  AN      X      Y      Z        X      Y      Z        X      Y      Z
     1   6    -0.01   0.00   0.00     0.00   0.02   0.02    -0.01  -0.00  -0.00
     2   6     0.02  -0.01   0.02     0.01  -0.00   0.01     0.03  -0.02   0.02
     3   6     0.00  -0.01  -0.01     0.00  -0.00  -0.02     0.00   0.00   0.00
     4   7    -0.00  -0.00   0.00     0.00  -0.01   0.00    -0.00   0.00   0.00
     5   6     0.00   0.01   0.01    -0.00  -0.00  -0.02     0.00  -0.00  -0.00
     6   6     0.02   0.01  -0.02    -0.01  -0.00   0.01     0.03   0.02  -0.02
     7   6    -0.00   0.03   0.01     0.01  -0.02  -0.00    -0.02  -0.01   0.01
     8   6     0.00  -0.02   0.01    -0.01   0.02  -0.02     0.01   0.01  -0.00
     9   8     0.00   0.00  -0.00     0.00   0.00  -0.00     0.00  -0.00   0.00
    10   6    -0.00  -0.03  -0.01    -0.01  -0.02  -0.00    -0.02   0.01  -0.01
    11   6     0.00   0.02  -0.01     0.01   0.02  -0.02     0.01  -0.01   0.00
    12   1     0.03  -0.00  -0.00    -0.00  -0.08  -0.22     0.04   0.00   0.00
    13   1     0.01  -0.00   0.00    -0.00  -0.22   0.03     0.03   0.00  -0.00
    14   1    -0.02   0.05  -0.19    -0.02   0.04  -0.15    -0.06   0.07  -0.35
    15   1    -0.17   0.08   0.01    -0.16   0.03   0.01    -0.33   0.18   0.02
    16   1    -0.17  -0.08  -0.01     0.16   0.03   0.01    -0.33  -0.18  -0.02
    17   1    -0.02  -0.05   0.19     0.02   0.04  -0.15    -0.06  -0.07   0.35
    18   1     0.13   0.05   0.12    -0.17  -0.01  -0.03     0.17  -0.08  -0.16
    19   1     0.11  -0.30  -0.13    -0.07   0.22   0.03    -0.03   0.00   0.11
    20   1    -0.24  -0.14  -0.08     0.13   0.02   0.08     0.10   0.22  -0.10
    21   1     0.20   0.14  -0.06    -0.25  -0.11   0.07    -0.10  -0.17   0.04
    22   1    -0.08   0.15  -0.25     0.10  -0.20   0.31    -0.00   0.02   0.14
    23   1    -0.17  -0.02   0.08     0.23   0.04  -0.05    -0.02  -0.04  -0.13
    24   1     0.11   0.30   0.13     0.07   0.22   0.03    -0.03  -0.00  -0.11
    25   1     0.13  -0.05  -0.12     0.17  -0.01  -0.03     0.17   0.08   0.16
    26   1    -0.24   0.14   0.08    -0.13   0.02   0.08     0.10  -0.22   0.10
    27   1     0.20  -0.14   0.06     0.25  -0.11   0.07    -0.10   0.17  -0.04
    28   1    -0.17   0.02  -0.08    -0.23   0.04  -0.05    -0.02   0.04   0.13
    29   1    -0.08  -0.15   0.25    -0.10  -0.20   0.31    -0.00  -0.02  -0.14
                     55                     56                     57
                      A                      A                      A
 Frequencies --   1474.1002              1478.6266              1482.6541
 Red. masses --      1.0677                 1.0565                 1.0697
 Frc consts  --      1.3670                 1.3609                 1.3855
 IR Inten    --      6.9592                 0.4015                10.0968
  Atom  AN      X      Y      Z        X      Y      Z        X      Y      Z
     1   6    -0.00  -0.03  -0.03     0.01  -0.00  -0.00     0.00  -0.03  -0.02
     2   6    -0.02  -0.01  -0.01     0.01  -0.02   0.01    -0.01   0.00  -0.00
     3   6     0.01   0.02  -0.01     0.00  -0.00   0.02     0.01   0.00  -0.01
     4   7     0.00   0.01  -0.00    -0.00   0.00  -0.00    -0.00  -0.03   0.00
     5   6    -0.01   0.02  -0.01     0.00   0.00  -0.02    -0.01   0.00  -0.01
     6   6     0.02  -0.01  -0.01     0.01   0.02  -0.01     0.01   0.00  -0.00
     7   6    -0.02  -0.01   0.01     0.02   0.01   0.00     0.01   0.01   0.00
     8   6     0.01   0.02  -0.01    -0.01  -0.00  -0.02    -0.02  -0.02  -0.02
     9   8    -0.00  -0.01   0.00     0.00  -0.00   0.00     0.00   0.02  -0.00
    10   6     0.02  -0.01   0.01     0.02  -0.01  -0.00    -0.01   0.01   0.00
    11   6    -0.01   0.02  -0.01    -0.01   0.00   0.02     0.02  -0.02  -0.02
    12   1    -0.00   0.12   0.36     0.01   0.00   0.00     0.00   0.08   0.26
    13   1     0.00   0.35  -0.05    -0.05   0.00  -0.00    -0.00   0.28  -0.03
    14   1     0.04  -0.01   0.15    -0.04   0.03  -0.20     0.03   0.00   0.07
    15   1     0.17  -0.04  -0.01    -0.16   0.15   0.01     0.06  -0.06  -0.01
    16   1    -0.17  -0.04  -0.01    -0.16  -0.15  -0.01    -0.06  -0.06  -0.01
    17   1    -0.04  -0.01   0.15    -0.04  -0.03   0.20    -0.03   0.00   0.07
    18   1     0.23  -0.06  -0.11    -0.20   0.06   0.11    -0.06   0.03   0.07
    19   1    -0.02  -0.05   0.15     0.02   0.04  -0.15     0.03  -0.04  -0.09
    20   1     0.10   0.21  -0.09    -0.10  -0.19   0.07    -0.10  -0.11   0.01
    21   1    -0.17  -0.20   0.06    -0.17   0.18   0.02    -0.09   0.33  -0.01
    22   1     0.03  -0.04   0.23     0.11  -0.23   0.16     0.10  -0.23   0.04
    23   1     0.06  -0.03  -0.15     0.28   0.11   0.19     0.26   0.14   0.30
    24   1     0.02  -0.05   0.15     0.02  -0.04   0.15    -0.03  -0.04  -0.09
    25   1    -0.23  -0.06  -0.11    -0.20  -0.06  -0.11     0.06   0.03   0.07
    26   1    -0.10   0.21  -0.09    -0.10   0.19  -0.07     0.10  -0.11   0.01
    27   1     0.17  -0.20   0.06    -0.17  -0.18  -0.02     0.09   0.33  -0.01
    28   1    -0.06  -0.03  -0.15     0.28  -0.11  -0.19    -0.26   0.14   0.30
    29   1    -0.03  -0.04   0.23     0.11   0.23  -0.16    -0.10  -0.23   0.04
                     58                     59                     60
                      A                      A                      A
 Frequencies --   1483.5247              1491.3771              1495.8848
 Red. masses --      1.0933                 1.1511                 1.1595
 Frc consts  --      1.4177                 1.5085                 1.5287
 IR Inten    --      5.5495                 9.7129                15.4065
  Atom  AN      X      Y      Z        X      Y      Z        X      Y      Z
     1   6     0.00   0.00   0.00     0.00   0.04   0.01    -0.00  -0.02  -0.01
     2   6     0.00  -0.03   0.01    -0.04   0.02  -0.03    -0.00   0.02  -0.01
     3   6     0.02   0.04  -0.01    -0.01  -0.01  -0.01    -0.01  -0.03   0.01
     4   7    -0.01   0.00  -0.00     0.00   0.05  -0.00     0.00  -0.06   0.00
     5   6     0.02  -0.04   0.01     0.01  -0.01  -0.01     0.01  -0.03   0.01
     6   6     0.00   0.03  -0.01     0.04   0.02  -0.03     0.00   0.02  -0.01
     7   6     0.01  -0.02  -0.01     0.01  -0.00  -0.00     0.00  -0.03  -0.02
     8   6    -0.01  -0.01   0.02    -0.00   0.01   0.00    -0.00  -0.01   0.01
     9   8     0.00  -0.00   0.00    -0.00  -0.04   0.00     0.00   0.05  -0.00
    10   6     0.01   0.02   0.01    -0.01  -0.00  -0.00    -0.00  -0.03  -0.02
    11   6    -0.01   0.01  -0.02     0.00   0.01   0.00     0.00  -0.01   0.01
    12   1     0.05  -0.00  -0.00     0.00  -0.06  -0.26     0.00   0.05   0.16
    13   1    -0.04  -0.00   0.00    -0.00  -0.28   0.03     0.00   0.18  -0.02
    14   1    -0.00   0.06  -0.14     0.08  -0.06   0.41    -0.00  -0.03   0.06
    15   1    -0.09   0.10   0.01     0.39  -0.18  -0.03     0.05  -0.05  -0.01
    16   1    -0.09  -0.10  -0.01    -0.39  -0.18  -0.03    -0.05  -0.05  -0.01
    17   1    -0.00  -0.06   0.14    -0.08  -0.06   0.41     0.00  -0.03   0.06
    18   1    -0.30  -0.00  -0.05    -0.14   0.02   0.03    -0.20  -0.04  -0.12
    19   1    -0.11   0.35   0.04    -0.01   0.09  -0.07    -0.14   0.38   0.16
    20   1     0.20  -0.00   0.17    -0.00  -0.07   0.06     0.32   0.13   0.15
    21   1     0.21   0.10  -0.06    -0.02  -0.03   0.01     0.12   0.09  -0.04
    22   1    -0.06   0.11  -0.25     0.01  -0.03   0.04    -0.03   0.06  -0.16
    23   1    -0.15  -0.00   0.07     0.02   0.01  -0.02    -0.09   0.01   0.07
    24   1    -0.11  -0.35  -0.04     0.01   0.09  -0.07     0.14   0.38   0.16
    25   1    -0.30   0.00   0.05     0.14   0.02   0.03     0.20  -0.04  -0.12
    26   1     0.20   0.00  -0.17     0.00  -0.07   0.06    -0.32   0.13   0.15
    27   1     0.21  -0.10   0.06     0.02  -0.03   0.01    -0.12   0.09  -0.04
    28   1    -0.15   0.00  -0.07    -0.02   0.01  -0.02     0.09   0.01   0.07
    29   1    -0.06  -0.11   0.25    -0.01  -0.03   0.04     0.03   0.06  -0.16
                     61                     62                     63
                      A                      A                      A
 Frequencies --   1496.1473              1501.1960              1516.6245
 Red. masses --      1.0607                 1.2183                 3.0575
 Frc consts  --      1.3990                 1.6177                 4.1436
 IR Inten    --     16.0511                 4.4789                19.7067
  Atom  AN      X      Y      Z        X      Y      Z        X      Y      Z
     1   6     0.00  -0.00  -0.00    -0.00  -0.04  -0.03    -0.00  -0.00   0.01
     2   6    -0.00   0.00   0.00     0.02  -0.00   0.00     0.02   0.01   0.00
     3   6     0.03  -0.02  -0.00    -0.03  -0.00  -0.00     0.02  -0.07  -0.00
     4   7    -0.01  -0.00   0.00     0.00   0.08  -0.00     0.00   0.30  -0.01
     5   6     0.03   0.02   0.00     0.03  -0.00  -0.00    -0.02  -0.07  -0.00
     6   6    -0.00  -0.00  -0.00    -0.02  -0.00   0.00    -0.02   0.01   0.00
     7   6     0.02   0.01  -0.01     0.02   0.00  -0.02    -0.02  -0.00  -0.01
     8   6     0.01   0.02   0.01    -0.00   0.02   0.01    -0.02   0.00   0.01
     9   8     0.00   0.00  -0.00    -0.00  -0.06   0.00    -0.00  -0.21   0.02
    10   6     0.02  -0.01   0.01    -0.02   0.00  -0.02     0.02  -0.00  -0.01
    11   6     0.01  -0.02  -0.01     0.00   0.02   0.01     0.02   0.00   0.01
    12   1    -0.02   0.00   0.00     0.00   0.11   0.34    -0.00  -0.01  -0.02
    13   1    -0.00   0.00  -0.00     0.00   0.36  -0.05    -0.00  -0.01   0.01
    14   1     0.00   0.04  -0.04    -0.02  -0.05  -0.05    -0.02   0.01  -0.12
    15   1    -0.04  -0.01  -0.00    -0.04   0.05   0.00    -0.14   0.02   0.00
    16   1    -0.04   0.01   0.00     0.04   0.05   0.00     0.14   0.02   0.00
    17   1     0.00  -0.04   0.04     0.02  -0.05  -0.05     0.02   0.01  -0.12
    18   1    -0.22   0.08   0.17    -0.29   0.10   0.20     0.14  -0.06  -0.15
    19   1     0.02   0.04  -0.17    -0.00   0.10  -0.14    -0.06   0.04   0.24
    20   1    -0.10  -0.23   0.11    -0.05  -0.27   0.19     0.21   0.20   0.01
    21   1    -0.05  -0.36   0.04     0.01  -0.19   0.01     0.10   0.25  -0.04
    22   1    -0.06   0.13   0.14    -0.02   0.05   0.05     0.08  -0.15  -0.19
    23   1    -0.12  -0.11  -0.31    -0.05  -0.05  -0.17     0.09   0.09   0.21
    24   1     0.02  -0.04   0.17     0.00   0.10  -0.14     0.06   0.04   0.24
    25   1    -0.22  -0.08  -0.18     0.29   0.10   0.20    -0.14  -0.06  -0.15
    26   1    -0.10   0.23  -0.11     0.05  -0.27   0.19    -0.21   0.20   0.01
    27   1    -0.05   0.36  -0.04    -0.01  -0.19   0.01    -0.10   0.25  -0.04
    28   1    -0.12   0.11   0.31     0.05  -0.06  -0.17    -0.09   0.09   0.21
    29   1    -0.06  -0.13  -0.14     0.02   0.05   0.05    -0.08  -0.15  -0.19
                     64                     65                     66
                      A                      A                      A
 Frequencies --   3038.6974              3040.1904              3042.7920
 Red. masses --      1.0626                 1.0624                 1.0373
 Frc consts  --      5.7811                 5.7856                 5.6587
 IR Inten    --     10.1756                39.1465                 0.1170
  Atom  AN      X      Y      Z        X      Y      Z        X      Y      Z
     1   6     0.00  -0.00   0.00    -0.00  -0.01   0.01     0.00   0.00   0.00
     2   6    -0.02   0.01  -0.04    -0.02   0.01  -0.04    -0.00   0.00  -0.00
     3   6    -0.00  -0.00  -0.00    -0.00  -0.00  -0.00    -0.00  -0.00  -0.00
     4   7     0.00  -0.00   0.00    -0.00  -0.00   0.00     0.00   0.00  -0.00
     5   6    -0.00   0.00   0.00     0.00  -0.00  -0.00    -0.00   0.00   0.00
     6   6    -0.02  -0.01   0.04     0.02   0.01  -0.04    -0.00  -0.00   0.00
     7   6     0.00  -0.00   0.01    -0.00   0.00  -0.01    -0.01   0.00  -0.03
     8   6     0.00  -0.00  -0.00    -0.01   0.00   0.01     0.01  -0.00  -0.01
     9   8    -0.00   0.00  -0.00     0.00   0.00  -0.00    -0.00  -0.00   0.00
    10   6     0.00   0.00  -0.01     0.00   0.00  -0.01    -0.01  -0.00   0.03
    11   6     0.00   0.00   0.00     0.01   0.00   0.01     0.01   0.00   0.01
    12   1    -0.01   0.00  -0.00     0.00   0.11  -0.04    -0.00  -0.00   0.00
    13   1     0.00  -0.00  -0.00     0.00  -0.01  -0.05     0.00  -0.00  -0.00
    14   1     0.29  -0.16  -0.11     0.29  -0.16  -0.11     0.03  -0.02  -0.01
    15   1    -0.01  -0.00   0.58    -0.00  -0.00   0.56    -0.00  -0.00   0.06
    16   1    -0.01   0.00  -0.58     0.00  -0.00   0.56    -0.00   0.00  -0.06
    17   1     0.29   0.16   0.11    -0.29  -0.16  -0.11     0.03   0.02   0.01
    18   1     0.01   0.08  -0.03    -0.01  -0.07   0.02    -0.03  -0.32   0.10
    19   1    -0.10  -0.03  -0.01     0.08   0.02   0.01     0.36   0.11   0.03
    20   1     0.05  -0.05  -0.05    -0.03   0.03   0.03    -0.19   0.19   0.19
    21   1     0.02   0.00   0.07    -0.04  -0.00  -0.12     0.07   0.01   0.22
    22   1    -0.06  -0.04  -0.00     0.10   0.06   0.01    -0.20  -0.11  -0.01
    23   1    -0.01   0.05  -0.02     0.01  -0.08   0.03    -0.02   0.15  -0.06
    24   1    -0.10   0.03   0.01    -0.08   0.02   0.01     0.36  -0.11  -0.03
    25   1     0.01  -0.08   0.03     0.01  -0.07   0.02    -0.03   0.32  -0.10
    26   1     0.05   0.05   0.05     0.03   0.03   0.03    -0.19  -0.19  -0.19
    27   1     0.02  -0.00  -0.07     0.04  -0.00  -0.12     0.07  -0.01  -0.22
    28   1    -0.01  -0.05   0.02    -0.01  -0.08   0.03    -0.02  -0.15   0.06
    29   1    -0.06   0.04   0.00    -0.10   0.06   0.01    -0.20   0.11   0.01
                     67                     68                     69
                      A                      A                      A
 Frequencies --   3044.4097              3046.4945              3048.2491
 Red. masses --      1.0381                 1.0399                 1.0417
 Frc consts  --      5.6691                 5.6866                 5.7027
 IR Inten    --     52.9770                47.6922                 2.7346
  Atom  AN      X      Y      Z        X      Y      Z        X      Y      Z
     1   6    -0.00   0.00   0.01    -0.00  -0.00  -0.00    -0.00  -0.01  -0.01
     2   6    -0.00   0.00  -0.00     0.01  -0.00   0.01    -0.01   0.01  -0.01
     3   6     0.00   0.00   0.00    -0.00  -0.00   0.00     0.00   0.00  -0.00
     4   7    -0.00  -0.00  -0.00    -0.00  -0.00  -0.00     0.00  -0.00   0.00
     5   6    -0.00   0.00   0.00    -0.00   0.00  -0.00    -0.00   0.00  -0.00
     6   6     0.00   0.00  -0.00     0.01   0.00  -0.01     0.01   0.01  -0.01
     7   6    -0.01   0.00  -0.02     0.01  -0.00   0.02     0.01  -0.00   0.02
     8   6     0.02  -0.01  -0.02     0.02  -0.01  -0.02     0.02  -0.01  -0.02
     9   8     0.00   0.00   0.00    -0.00   0.00  -0.00     0.00   0.00  -0.00
    10   6     0.01   0.00  -0.02     0.01   0.00  -0.02    -0.01  -0.00   0.02
    11   6    -0.02  -0.01  -0.02     0.02   0.01   0.02    -0.02  -0.01  -0.02
    12   1    -0.00  -0.05   0.02     0.00   0.00  -0.00     0.00   0.16  -0.06
    13   1     0.00  -0.01  -0.10    -0.00   0.00   0.00    -0.00   0.01   0.17
    14   1     0.02  -0.01  -0.01    -0.07   0.04   0.03     0.10  -0.06  -0.04
    15   1    -0.00  -0.00   0.06     0.00   0.00  -0.15    -0.00  -0.00   0.17
    16   1     0.00  -0.00   0.06     0.00  -0.00   0.15     0.00  -0.00   0.17
    17   1    -0.02  -0.01  -0.01    -0.07  -0.04  -0.03    -0.10  -0.06  -0.04
    18   1    -0.02  -0.26   0.08     0.01   0.18  -0.06     0.02   0.26  -0.08
    19   1     0.29   0.09   0.03    -0.20  -0.06  -0.02    -0.29  -0.09  -0.03
    20   1    -0.14   0.14   0.14     0.11  -0.10  -0.11     0.14  -0.14  -0.14
    21   1     0.10   0.01   0.31     0.12   0.01   0.36     0.09   0.01   0.27
    22   1    -0.28  -0.16  -0.01    -0.32  -0.18  -0.02    -0.24  -0.13  -0.01
    23   1    -0.03   0.22  -0.08    -0.03   0.25  -0.09    -0.02   0.19  -0.07
    24   1    -0.29   0.09   0.03    -0.20   0.06   0.02     0.29  -0.09  -0.03
    25   1     0.02  -0.26   0.08     0.01  -0.18   0.06    -0.02   0.26  -0.08
    26   1     0.14   0.14   0.14     0.11   0.10   0.11    -0.14  -0.14  -0.14
    27   1    -0.10   0.01   0.31     0.12  -0.01  -0.36    -0.09   0.01   0.27
    28   1     0.03   0.22  -0.08    -0.03  -0.25   0.09     0.02   0.19  -0.07
    29   1     0.28  -0.16  -0.01    -0.32   0.18   0.02     0.24  -0.13  -0.01
                     70                     71                     72
                      A                      A                      A
 Frequencies --   3056.7042              3099.6907              3099.7435
 Red. masses --      1.0634                 1.1012                 1.1038
 Frc consts  --      5.8541                 6.2336                 6.2488
 IR Inten    --     34.6831                29.3179                29.6824
  Atom  AN      X      Y      Z        X      Y      Z        X      Y      Z
     1   6    -0.00  -0.05  -0.04     0.00   0.04  -0.03     0.00  -0.00   0.00
     2   6    -0.00   0.00   0.01    -0.04   0.02   0.04    -0.04   0.02   0.04
     3   6    -0.00   0.00   0.00    -0.00  -0.00   0.00    -0.00   0.00   0.00
     4   7     0.00   0.00  -0.00     0.00  -0.00  -0.00     0.00   0.00   0.00
     5   6     0.00   0.00   0.00     0.00  -0.00   0.00    -0.00  -0.00  -0.00
     6   6     0.00   0.00   0.01     0.04   0.02   0.03    -0.04  -0.02  -0.05
     7   6    -0.01   0.00  -0.01    -0.00  -0.00   0.00     0.00   0.00  -0.00
     8   6    -0.00   0.00   0.00    -0.00  -0.00  -0.00     0.00   0.00   0.00
     9   8    -0.00  -0.00   0.00     0.00   0.00  -0.00     0.00  -0.00   0.00
    10   6     0.01   0.00  -0.01     0.00  -0.00   0.00     0.00  -0.00   0.00
    11   6     0.00   0.00   0.00     0.00  -0.00  -0.00     0.00  -0.00  -0.00
    12   1     0.00   0.54  -0.21    -0.00  -0.44   0.16     0.00   0.01  -0.00
    13   1    -0.00   0.04   0.74    -0.00   0.01   0.18    -0.00  -0.00  -0.00
    14   1     0.05  -0.03  -0.02     0.46  -0.26  -0.16     0.50  -0.28  -0.18
    15   1    -0.00   0.00  -0.11    -0.00   0.00  -0.27    -0.00   0.01  -0.35
    16   1     0.00   0.00  -0.11     0.00   0.00  -0.26    -0.00  -0.01   0.36
    17   1    -0.05  -0.03  -0.02    -0.45  -0.25  -0.16     0.51   0.29   0.18
    18   1    -0.01  -0.10   0.03    -0.00   0.01  -0.00    -0.00  -0.01   0.00
    19   1     0.12   0.04   0.01     0.01   0.00   0.00    -0.01  -0.00  -0.00
    20   1    -0.04   0.04   0.04     0.01  -0.01  -0.01    -0.00   0.00   0.00
    21   1    -0.01  -0.00  -0.03     0.01   0.00   0.03    -0.01  -0.00  -0.03
    22   1     0.02   0.01   0.00     0.01   0.01   0.00    -0.02  -0.01  -0.00
    23   1     0.00  -0.02   0.01    -0.00   0.00  -0.00     0.00   0.00  -0.00
    24   1    -0.12   0.04   0.01    -0.01   0.00   0.00    -0.01   0.00   0.00
    25   1     0.01  -0.10   0.03     0.00   0.01  -0.00    -0.00   0.01  -0.00
    26   1     0.04   0.04   0.04    -0.01  -0.01  -0.01    -0.00  -0.00  -0.00
    27   1     0.01  -0.00  -0.03    -0.01   0.00   0.03    -0.01   0.00   0.02
    28   1    -0.00  -0.02   0.01     0.00   0.00  -0.00     0.00  -0.00   0.00
    29   1    -0.02   0.01   0.00    -0.01   0.01   0.00    -0.01   0.01   0.00
                     73                     74                     75
                      A                      A                      A
 Frequencies --   3109.9077              3136.2059              3136.7665
 Red. masses --      1.1059                 1.1056                 1.1054
 Frc consts  --      6.3019                 6.4073                 6.4084
 IR Inten    --     51.0207                 1.8029                28.1502
  Atom  AN      X      Y      Z        X      Y      Z        X      Y      Z
     1   6     0.00   0.05  -0.07     0.00   0.00  -0.00     0.00   0.00  -0.00
     2   6     0.02  -0.01  -0.03    -0.00   0.00   0.00     0.00  -0.00  -0.00
     3   6     0.00  -0.00  -0.00    -0.00  -0.00   0.00     0.00  -0.00  -0.00
     4   7     0.00   0.00   0.00     0.00  -0.00   0.00    -0.00  -0.00   0.00
     5   6    -0.00  -0.00  -0.00    -0.00   0.00  -0.00    -0.00  -0.00  -0.00
     6   6    -0.02  -0.01  -0.03    -0.00  -0.00  -0.00    -0.00  -0.00  -0.00
     7   6    -0.00   0.00   0.00     0.03   0.01  -0.01     0.01   0.01  -0.00
     8   6     0.00   0.00   0.00    -0.04  -0.02  -0.04    -0.05  -0.02  -0.04
     9   8     0.00  -0.00   0.00    -0.00  -0.00   0.00     0.00   0.00   0.00
    10   6     0.00   0.00   0.00     0.03  -0.01   0.01    -0.01   0.01  -0.00
    11   6    -0.00   0.00   0.00    -0.04   0.02   0.04     0.05  -0.02  -0.04
    12   1    -0.00  -0.59   0.22    -0.00  -0.00   0.00    -0.00  -0.01   0.00
    13   1    -0.00   0.04   0.60    -0.00   0.00   0.00    -0.00   0.00   0.02
    14   1    -0.21   0.11   0.07     0.01  -0.01  -0.00    -0.02   0.01   0.01
    15   1     0.00  -0.00   0.24    -0.00   0.00  -0.01     0.00  -0.00   0.02
    16   1    -0.00  -0.00   0.24    -0.00  -0.00   0.01    -0.00  -0.00   0.02
    17   1     0.21   0.11   0.07     0.01   0.01   0.00     0.02   0.01   0.01
    18   1    -0.00  -0.02   0.01    -0.01  -0.13   0.04    -0.01  -0.12   0.04
    19   1     0.03   0.01   0.00    -0.25  -0.08  -0.03    -0.13  -0.04  -0.01
    20   1     0.02  -0.02  -0.02    -0.10   0.10   0.10    -0.03   0.03   0.03
    21   1    -0.01  -0.00  -0.02     0.13   0.01   0.41     0.14   0.01   0.45
    22   1    -0.02  -0.01  -0.00     0.39   0.21   0.01     0.42   0.23   0.01
    23   1    -0.00   0.01  -0.00    -0.01  -0.00  -0.00    -0.01  -0.01  -0.00
    24   1    -0.03   0.01   0.00    -0.25   0.08   0.03     0.13  -0.04  -0.01
    25   1     0.00  -0.02   0.01    -0.01   0.13  -0.04     0.01  -0.12   0.04
    26   1    -0.02  -0.02  -0.02    -0.10  -0.10  -0.10     0.03   0.03   0.03
    27   1     0.01  -0.00  -0.02     0.13  -0.01  -0.41    -0.14   0.01   0.45
    28   1     0.00   0.01  -0.00    -0.01   0.00   0.00     0.01  -0.01  -0.00
    29   1     0.02  -0.01  -0.00     0.39  -0.21  -0.01    -0.42   0.23   0.01
                     76                     77                     78
                      A                      A                      A
 Frequencies --   3139.0926              3141.6487              3148.1567
 Red. masses --      1.1051                 1.1044                 1.1058
 Frc consts  --      6.4158                 6.4223                 6.4573
 IR Inten    --     69.6344                 8.3972                 3.4923
  Atom  AN      X      Y      Z        X      Y      Z        X      Y      Z
     1   6    -0.00  -0.00   0.00     0.00   0.00  -0.00     0.00   0.00  -0.00
     2   6    -0.00   0.00   0.00    -0.00   0.00   0.00    -0.00   0.00   0.00
     3   6    -0.00   0.00   0.00    -0.00   0.00  -0.00     0.00   0.00  -0.00
     4   7     0.00  -0.00   0.00     0.00   0.00  -0.00    -0.00  -0.00  -0.00
     5   6    -0.00  -0.00  -0.00     0.00   0.00  -0.00     0.00  -0.00   0.00
     6   6    -0.00  -0.00  -0.00     0.00   0.00   0.00    -0.00  -0.00  -0.00
     7   6    -0.05  -0.01   0.02     0.05   0.03  -0.02     0.01  -0.06  -0.01
     8   6    -0.02  -0.01  -0.02     0.01   0.00   0.01    -0.00   0.00  -0.00
     9   8     0.00   0.00  -0.00    -0.00  -0.00   0.00    -0.00   0.00  -0.00
    10   6    -0.05   0.01  -0.02    -0.05   0.03  -0.02     0.01   0.06   0.01
    11   6    -0.02   0.01   0.02    -0.01   0.00   0.01    -0.00  -0.00   0.00
    12   1     0.00   0.00  -0.00    -0.00  -0.01   0.01     0.00  -0.00   0.00
    13   1    -0.00   0.00  -0.00    -0.00   0.00   0.03    -0.00   0.00   0.00
    14   1     0.02  -0.01  -0.01     0.02  -0.01  -0.01     0.01  -0.00  -0.00
    15   1     0.00   0.00  -0.02     0.00   0.00  -0.01     0.00  -0.00  -0.00
    16   1     0.00  -0.00   0.02    -0.00   0.00  -0.01     0.00   0.00   0.00
    17   1     0.02   0.01   0.01    -0.02  -0.01  -0.01     0.01   0.00   0.00
    18   1     0.01   0.19  -0.06    -0.02  -0.38   0.12     0.04   0.50  -0.17
    19   1     0.45   0.14   0.05    -0.48  -0.15  -0.05     0.08   0.02   0.01
    20   1     0.20  -0.20  -0.20    -0.12   0.12   0.12    -0.26   0.26   0.26
    21   1     0.07   0.01   0.23    -0.04  -0.01  -0.14     0.01   0.00   0.03
    22   1     0.21   0.11   0.01    -0.11  -0.06  -0.00     0.01   0.00   0.00
    23   1    -0.00  -0.02   0.01    -0.00   0.04  -0.01     0.00  -0.04   0.01
    24   1     0.45  -0.14  -0.05     0.48  -0.15  -0.05     0.08  -0.02  -0.01
    25   1     0.01  -0.19   0.06     0.02  -0.38   0.12     0.04  -0.50   0.17
    26   1     0.20   0.20   0.20     0.12   0.12   0.12    -0.26  -0.26  -0.26
    27   1     0.07  -0.01  -0.23     0.04  -0.01  -0.14     0.01  -0.00  -0.03
    28   1    -0.00   0.02  -0.01     0.00   0.04  -0.01     0.00   0.04  -0.01
    29   1     0.21  -0.11  -0.01     0.11  -0.06  -0.00     0.01  -0.00  -0.00
                     79                     80                     81
                      A                      A                      A
 Frequencies --   3156.1398              3163.9310              3164.2079
 Red. masses --      1.1040                 1.1045                 1.1044
 Frc consts  --      6.4796                 6.5144                 6.5151
 IR Inten    --     25.9099                 0.0056                26.4772
  Atom  AN      X      Y      Z        X      Y      Z        X      Y      Z
     1   6     0.00   0.00  -0.01    -0.00   0.00   0.00     0.00   0.00   0.00
     2   6     0.00  -0.00  -0.00     0.00  -0.00  -0.00    -0.00   0.00   0.00
     3   6    -0.00  -0.00  -0.00    -0.00   0.00  -0.00     0.00  -0.00   0.00
     4   7     0.00  -0.00  -0.00     0.00  -0.00  -0.00    -0.00  -0.00  -0.00
     5   6     0.00  -0.00  -0.00    -0.00  -0.00   0.00    -0.00  -0.00   0.00
     6   6    -0.00  -0.00  -0.00     0.00   0.00   0.00     0.00   0.00   0.00
     7   6     0.03  -0.06  -0.02    -0.00  -0.00  -0.00    -0.00  -0.01  -0.00
     8   6    -0.00   0.00  -0.00    -0.00  -0.06   0.03    -0.00  -0.06   0.03
     9   8     0.00   0.00  -0.00    -0.00   0.00   0.00     0.00   0.00   0.00
    10   6    -0.03  -0.06  -0.02    -0.00   0.00   0.00     0.00  -0.01  -0.00
    11   6     0.00   0.00  -0.00    -0.00   0.06  -0.03     0.00  -0.06   0.03
    12   1    -0.00  -0.02   0.01     0.00   0.00  -0.00    -0.00   0.00  -0.00
    13   1    -0.00   0.00   0.07     0.00  -0.00  -0.00    -0.00  -0.00  -0.00
    14   1    -0.00   0.00   0.00    -0.00   0.00   0.00     0.00  -0.00  -0.00
    15   1     0.00   0.00   0.01    -0.00  -0.00   0.00     0.00   0.00  -0.01
    16   1    -0.00   0.00   0.01    -0.00   0.00  -0.00    -0.00   0.00  -0.01
    17   1     0.00   0.00   0.00    -0.00  -0.00  -0.00    -0.00  -0.00  -0.00
    18   1     0.03   0.37  -0.13     0.00   0.04  -0.01     0.00   0.05  -0.02
    19   1    -0.08  -0.03  -0.01     0.02   0.01   0.00     0.02   0.01   0.00
    20   1    -0.33   0.32   0.33    -0.01   0.01   0.01    -0.02   0.02   0.02
    21   1     0.01   0.00   0.03    -0.07  -0.01  -0.20    -0.07  -0.01  -0.20
    22   1    -0.01  -0.01  -0.00     0.20   0.11   0.01     0.21   0.11   0.01
    23   1     0.01  -0.05   0.02    -0.08   0.59  -0.21    -0.08   0.58  -0.21
    24   1     0.08  -0.03  -0.01     0.02  -0.01  -0.00    -0.02   0.01   0.00
    25   1    -0.03   0.37  -0.13     0.00  -0.04   0.01    -0.00   0.05  -0.02
    26   1     0.33   0.32   0.33    -0.01  -0.01  -0.01     0.02   0.02   0.02
    27   1    -0.01   0.00   0.03    -0.07   0.01   0.20     0.07  -0.01  -0.20
    28   1    -0.01  -0.05   0.02    -0.08  -0.59   0.21     0.08   0.59  -0.21
    29   1     0.01  -0.01  -0.00     0.20  -0.11  -0.01    -0.21   0.11   0.01

 -------------------
 - Thermochemistry -
 -------------------
 Temperature   298.150 Kelvin.  Pressure   1.00000 Atm.
 Atom     1 has atomic number  6 and mass  12.00000
 Atom     2 has atomic number  6 and mass  12.00000
 Atom     3 has atomic number  6 and mass  12.00000
 Atom     4 has atomic number  7 and mass  14.00307
 Atom     5 has atomic number  6 and mass  12.00000
 Atom     6 has atomic number  6 and mass  12.00000
 Atom     7 has atomic number  6 and mass  12.00000
 Atom     8 has atomic number  6 and mass  12.00000
 Atom     9 has atomic number  8 and mass  15.99491
 Atom    10 has atomic number  6 and mass  12.00000
 Atom    11 has atomic number  6 and mass  12.00000
 Atom    12 has atomic number  1 and mass   1.00783
 Atom    13 has atomic number  1 and mass   1.00783
 Atom    14 has atomic number  1 and mass   1.00783
 Atom    15 has atomic number  1 and mass   1.00783
 Atom    16 has atomic number  1 and mass   1.00783
 Atom    17 has atomic number  1 and mass   1.00783
 Atom    18 has atomic number  1 and mass   1.00783
 Atom    19 has atomic number  1 and mass   1.00783
 Atom    20 has atomic number  1 and mass   1.00783
 Atom    21 has atomic number  1 and mass   1.00783
 Atom    22 has atomic number  1 and mass   1.00783
 Atom    23 has atomic number  1 and mass   1.00783
 Atom    24 has atomic number  1 and mass   1.00783
 Atom    25 has atomic number  1 and mass   1.00783
 Atom    26 has atomic number  1 and mass   1.00783
 Atom    27 has atomic number  1 and mass   1.00783
 Atom    28 has atomic number  1 and mass   1.00783
 Atom    29 has atomic number  1 and mass   1.00783
 Molecular mass:   156.13884 amu.
 Principal axes and moments of inertia in atomic units:
                           1         2         3
     Eigenvalues --  1215.782801690.599532101.39758
           X            1.00000   0.00002  -0.00002
           Y           -0.00002   0.99998  -0.00622
           Z            0.00002   0.00622   0.99998
 This molecule is an asymmetric top.
 Rotational symmetry number  1.
 Warning -- assumption of classical behavior for rotation
           may cause significant error
 Rotational temperatures (Kelvin)      0.07124     0.05123     0.04122
 Rotational constants (GHZ):           1.48443     1.06752     0.85883
 Zero-point vibrational energy     693244.1 (Joules/Mol)
                                  165.68931 (Kcal/Mol)
 Warning -- explicit consideration of  20 degrees of freedom as
           vibrations may cause significant error
 Vibrational temperatures:    117.78   178.62   299.81   309.45   362.01
          (Kelvin)            383.65   403.39   433.31   433.59   455.61
                              476.77   492.52   572.59   600.84   603.05
                              671.36   696.87   801.06   831.88   852.31
                              950.73  1169.14  1190.26  1267.49  1304.94
                             1364.16  1378.12  1378.67  1415.50  1443.97
                             1464.54  1466.57  1542.84  1568.86  1573.20
                             1615.12  1707.99  1758.50  1794.11  1809.07
                             1835.42  1858.82  1891.94  1925.81  1992.93
                             2008.59  2010.31  2027.67  2032.79  2042.78
                             2046.30  2103.96  2112.46  2115.11  2120.90
                             2127.41  2133.21  2134.46  2145.76  2152.24
                             2152.62  2159.89  2182.08  4372.01  4374.16
                             4377.90  4380.23  4383.23  4385.75  4397.92
                             4459.76  4459.84  4474.46  4512.30  4513.11
                             4516.45  4520.13  4529.50  4540.98  4552.19
                             4552.59
 
 Zero-point correction=                           0.264043 (Hartree/Particle)
 Thermal correction to Energy=                    0.275686
 Thermal correction to Enthalpy=                  0.276631
 Thermal correction to Gibbs Free Energy=         0.227747
 Sum of electronic and zero-point Energies=           -482.940917
 Sum of electronic and thermal Energies=              -482.929274
 Sum of electronic and thermal Enthalpies=            -482.928329
 Sum of electronic and thermal Free Energies=         -482.977213
 
                     E (Thermal)             CV                S
                      KCal/Mol        Cal/Mol-Kelvin    Cal/Mol-Kelvin
 Total                  172.996             47.168            102.885
 Electronic               0.000              0.000              1.377
 Translational            0.889              2.981             41.046
 Rotational               0.889              2.981             29.847
 Vibrational            171.218             41.207             30.614
 Vibration     1          0.600              1.962              3.846
 Vibration     2          0.610              1.929              3.035
 Vibration     3          0.642              1.828              2.058
 Vibration     4          0.645              1.818              2.000
 Vibration     5          0.664              1.760              1.719
 Vibration     6          0.672              1.734              1.618
 Vibration     7          0.680              1.710              1.531
 Vibration     8          0.693              1.671              1.410
 Vibration     9          0.693              1.671              1.409
 Vibration    10          0.704              1.642              1.327
 Vibration    11          0.714              1.613              1.253
 Vibration    12          0.721              1.591              1.201
 Vibration    13          0.764              1.474              0.970
 Vibration    14          0.781              1.432              0.900
 Vibration    15          0.782              1.429              0.895
 Vibration    16          0.824              1.324              0.747
 Vibration    17          0.840              1.285              0.698
 Vibration    18          0.912              1.125              0.530
 Vibration    19          0.935              1.078              0.489
 Vibration    20          0.950              1.048              0.463
                       Q            Log10(Q)             Ln(Q)
 Total Bot       0.175355-104       -104.756082       -241.209793
 Total V=0       0.495483D+17         16.695028         38.441724
 Vib (Bot)       0.153681-118       -118.813381       -273.577919
 Vib (Bot)    1  0.251504D+01          0.400544          0.922287
 Vib (Bot)    2  0.164447D+01          0.216025          0.497415
 Vib (Bot)    3  0.953772D+00         -0.020555         -0.047331
 Vib (Bot)    4  0.921548D+00         -0.035482         -0.081701
 Vib (Bot)    5  0.775098D+00         -0.110643         -0.254765
 Vib (Bot)    6  0.726003D+00         -0.139062         -0.320201
 Vib (Bot)    7  0.685606D+00         -0.163926         -0.377453
 Vib (Bot)    8  0.631056D+00         -0.199932         -0.460360
 Vib (Bot)    9  0.630572D+00         -0.200265         -0.461128
 Vib (Bot)   10  0.594814D+00         -0.225619         -0.519507
 Vib (Bot)   11  0.563387D+00         -0.249194         -0.573789
 Vib (Bot)   12  0.541641D+00         -0.266288         -0.613151
 Vib (Bot)   13  0.448524D+00         -0.348214         -0.801792
 Vib (Bot)   14  0.421235D+00         -0.375475         -0.864564
 Vib (Bot)   15  0.419203D+00         -0.377576         -0.869400
 Vib (Bot)   16  0.362508D+00         -0.440682         -1.014708
 Vib (Bot)   17  0.344010D+00         -0.463429         -1.067084
 Vib (Bot)   18  0.280032D+00         -0.552792         -1.272851
 Vib (Bot)   19  0.264030D+00         -0.578347         -1.331693
 Vib (Bot)   20  0.254036D+00         -0.595104         -1.370278
 Vib (V=0)       0.434240D+03          2.637730          6.073598
 Vib (V=0)    1  0.306426D+01          0.486325          1.119805
 Vib (V=0)    2  0.221880D+01          0.346118          0.796965
 Vib (V=0)    3  0.157688D+01          0.197800          0.455451
 Vib (V=0)    4  0.154845D+01          0.189898          0.437255
 Vib (V=0)    5  0.142238D+01          0.153014          0.352329
 Vib (V=0)    6  0.138152D+01          0.140358          0.323186
 Vib (V=0)    7  0.134856D+01          0.129870          0.299038
 Vib (V=0)    8  0.130513D+01          0.115653          0.266302
 Vib (V=0)    9  0.130475D+01          0.115527          0.266011
 Vib (V=0)   10  0.127705D+01          0.106207          0.244551
 Vib (V=0)   11  0.125326D+01          0.098042          0.225750
 Vib (V=0)   12  0.123714D+01          0.092419          0.212802
 Vib (V=0)   13  0.117169D+01          0.068815          0.158451
 Vib (V=0)   14  0.115379D+01          0.062126          0.143051
 Vib (V=0)   15  0.115248D+01          0.061634          0.141917
 Vib (V=0)   16  0.111759D+01          0.048281          0.111171
 Vib (V=0)   17  0.110691D+01          0.044113          0.101575
 Vib (V=0)   18  0.107308D+01          0.030631          0.070531
 Vib (V=0)   19  0.106543D+01          0.027525          0.063379
 Vib (V=0)   20  0.106083D+01          0.025647          0.059055
 Electronic      0.200000D+01          0.301030          0.693147
 Translational   0.766867D+08          7.884720         18.155239
 Rotational      0.743957D+06          5.871548         13.519739
 -------------------------------------------------------------------
 Center     Atomic                   Forces (Hartrees/Bohr)
 Number     Number              X              Y              Z
 -------------------------------------------------------------------
      1        6          -0.000000000    0.000001046   -0.000000251
      2        6          -0.000000973    0.000000107   -0.000001571
      3        6          -0.000000062    0.000000511    0.000000702
      4        7           0.000000001   -0.000001165    0.000000556
      5        6           0.000000057    0.000000510    0.000000698
      6        6           0.000000978    0.000000106   -0.000001575
      7        6           0.000000233    0.000001059    0.000001189
      8        6           0.000000212   -0.000000816   -0.000000098
      9        8           0.000000008   -0.000000816   -0.000001442
     10        6          -0.000000223    0.000001054    0.000001183
     11        6          -0.000000222   -0.000000817   -0.000000096
     12        1           0.000000000   -0.000001162   -0.000001340
     13        1           0.000000002    0.000000515   -0.000002269
     14        1           0.000000709   -0.000000613   -0.000001443
     15        1           0.000000024   -0.000001042    0.000000128
     16        1          -0.000000025   -0.000001041    0.000000127
     17        1          -0.000000710   -0.000000613   -0.000001444
     18        1          -0.000000018    0.000002080    0.000000735
     19        1          -0.000000947    0.000000676   -0.000000238
     20        1           0.000000594    0.000000615   -0.000000845
     21        1           0.000000558   -0.000001087    0.000002098
     22        1          -0.000000927   -0.000001130    0.000000527
     23        1          -0.000000056    0.000000435    0.000001202
     24        1           0.000000946    0.000000676   -0.000000246
     25        1           0.000000013    0.000002084    0.000000737
     26        1          -0.000000599    0.000000617   -0.000000844
     27        1          -0.000000555   -0.000001090    0.000002094
     28        1           0.000000054    0.000000437    0.000001201
     29        1           0.000000927   -0.000001135    0.000000524
 -------------------------------------------------------------------
 Cartesian Forces:  Max     0.000002269 RMS     0.000000913
 FormGI is forming the generalized inverse of G from B-inverse, IUseBI=4.
 Leave Link  716 at Wed Feb 28 21:13:53 2024, MaxMem=  2147483648 cpu:               1.3 elap:               0.1
 (Enter /software/gaussian-16RevA.03-el7-x86_64/g16/l103.exe)

 GradGradGradGradGradGradGradGradGradGradGradGradGradGradGradGradGradGrad
 Berny optimization.
 Red2BG is reusing G-inverse.
 Internal  Forces:  Max     0.000001591 RMS     0.000000468
 Step   1 in ReCalcFC=50 IGetFC= 4 recover analytic Hessian.
 Search for a local minimum.
 Step number   1 out of a maximum of    2
 All quantities printed in internal units (Hartrees-Bohrs-Radians)
 Second derivative matrix not updated -- analytic derivatives used.
 ITU=  0
     Eigenvalues ---    0.00228   0.00240   0.00343   0.00373   0.00463
     Eigenvalues ---    0.00623   0.00639   0.01280   0.02428   0.02542
     Eigenvalues ---    0.03869   0.03944   0.03998   0.04378   0.04463
     Eigenvalues ---    0.04485   0.04486   0.04595   0.04652   0.04667
     Eigenvalues ---    0.04747   0.04773   0.04905   0.05138   0.05726
     Eigenvalues ---    0.06090   0.06242   0.06822   0.07105   0.07263
     Eigenvalues ---    0.07685   0.08432   0.08997   0.10613   0.11394
     Eigenvalues ---    0.12254   0.12377   0.12663   0.12694   0.13372
     Eigenvalues ---    0.14353   0.14661   0.14670   0.15229   0.15441
     Eigenvalues ---    0.15664   0.15830   0.16000   0.17695   0.18843
     Eigenvalues ---    0.21681   0.22291   0.25812   0.26173   0.28427
     Eigenvalues ---    0.28461   0.28598   0.29287   0.29953   0.31398
     Eigenvalues ---    0.33062   0.33166   0.33481   0.33730   0.33733
     Eigenvalues ---    0.33933   0.34019   0.34051   0.34118   0.34128
     Eigenvalues ---    0.34151   0.34171   0.34339   0.34383   0.34422
     Eigenvalues ---    0.34483   0.34726   0.35012   0.35204   0.37666
     Eigenvalues ---    0.65015
 Angle between quadratic step and forces=  60.96 degrees.
 Linear search not attempted -- first point.
 Iteration  1 RMS(Cart)=  0.00008135 RMS(Int)=  0.00000000
 Iteration  2 RMS(Cart)=  0.00000001 RMS(Int)=  0.00000000
 ITry= 1 IFail=0 DXMaxC= 6.11D-04 DCOld= 1.00D+10 DXMaxT= 3.00D-01 DXLimC= 3.00D+00 Rises=F
 Variable       Old X    -DE/DX   Delta X   Delta X   Delta X     New X
                                 (Linear)    (Quad)   (Total)
    R1        2.87787  -0.00000   0.00000   0.00000   0.00000   2.87787
    R2        2.87787  -0.00000   0.00000   0.00000   0.00000   2.87787
    R3        2.08424  -0.00000   0.00000  -0.00000  -0.00000   2.08424
    R4        2.08644  -0.00000   0.00000  -0.00000  -0.00000   2.08643
    R5        2.90422  -0.00000   0.00000   0.00000   0.00000   2.90422
    R6        2.08552  -0.00000   0.00000  -0.00000  -0.00000   2.08552
    R7        2.08905  -0.00000   0.00000  -0.00000  -0.00000   2.08905
    R8        2.81714   0.00000   0.00000   0.00000   0.00000   2.81714
    R9        2.90656  -0.00000   0.00000   0.00000   0.00000   2.90656
   R10        2.89519  -0.00000   0.00000  -0.00000  -0.00000   2.89519
   R11        2.81714   0.00000   0.00000   0.00000   0.00000   2.81714
   R12        2.39413   0.00000   0.00000  -0.00000  -0.00000   2.39413
   R13        2.90422  -0.00000   0.00000   0.00000   0.00000   2.90422
   R14        2.90656  -0.00000   0.00000   0.00000   0.00000   2.90656
   R15        2.89519  -0.00000   0.00000  -0.00000  -0.00000   2.89519
   R16        2.08905  -0.00000   0.00000  -0.00000  -0.00000   2.08905
   R17        2.08552  -0.00000   0.00000  -0.00000  -0.00000   2.08552
   R18        2.08304  -0.00000   0.00000  -0.00000  -0.00000   2.08304
   R19        2.08490  -0.00000   0.00000  -0.00000  -0.00000   2.08490
   R20        2.08189  -0.00000   0.00000  -0.00001  -0.00001   2.08189
   R21        2.08494  -0.00000   0.00000  -0.00001  -0.00001   2.08493
   R22        2.08478  -0.00000   0.00000  -0.00000  -0.00000   2.08478
   R23        2.07876  -0.00000   0.00000  -0.00000  -0.00000   2.07876
   R24        2.08490  -0.00000   0.00000  -0.00000  -0.00000   2.08490
   R25        2.08304  -0.00000   0.00000  -0.00000  -0.00000   2.08304
   R26        2.08189  -0.00000   0.00000  -0.00001  -0.00001   2.08189
   R27        2.08494  -0.00000   0.00000  -0.00001  -0.00001   2.08493
   R28        2.07876  -0.00000   0.00000  -0.00000  -0.00000   2.07876
   R29        2.08478  -0.00000   0.00000  -0.00000  -0.00000   2.08478
    A1        1.90274   0.00000   0.00000   0.00001   0.00001   1.90275
    A2        1.91606  -0.00000   0.00000  -0.00000  -0.00000   1.91606
    A3        1.93663  -0.00000   0.00000  -0.00000  -0.00000   1.93663
    A4        1.91606  -0.00000   0.00000  -0.00000  -0.00000   1.91606
    A5        1.93663  -0.00000   0.00000  -0.00000  -0.00000   1.93663
    A6        1.85537   0.00000   0.00000  -0.00000  -0.00000   1.85537
    A7        1.98229  -0.00000   0.00000  -0.00000  -0.00000   1.98229
    A8        1.93992  -0.00000   0.00000  -0.00000  -0.00000   1.93992
    A9        1.89320   0.00000   0.00000   0.00000   0.00000   1.89320
   A10        1.88507   0.00000   0.00000   0.00000   0.00000   1.88508
   A11        1.89643  -0.00000   0.00000  -0.00001  -0.00001   1.89642
   A12        1.86283  -0.00000   0.00000   0.00000   0.00000   1.86284
   A13        1.92470   0.00000   0.00000  -0.00002  -0.00002   1.92468
   A14        1.94439  -0.00000   0.00000   0.00000   0.00000   1.94439
   A15        1.90571   0.00000   0.00000   0.00000   0.00000   1.90572
   A16        1.90414   0.00000   0.00000   0.00002   0.00002   1.90416
   A17        1.87582  -0.00000   0.00000   0.00000   0.00000   1.87582
   A18        1.90774  -0.00000   0.00000  -0.00001  -0.00001   1.90773
   A19        2.17075  -0.00000   0.00000  -0.00003  -0.00003   2.17072
   A20        2.02727   0.00000   0.00000   0.00002   0.00002   2.02729
   A21        2.02727   0.00000   0.00000   0.00002   0.00002   2.02729
   A22        1.92470   0.00000   0.00000  -0.00002  -0.00002   1.92468
   A23        1.90414   0.00000   0.00000   0.00002   0.00002   1.90416
   A24        1.87582  -0.00000   0.00000   0.00000   0.00000   1.87582
   A25        1.94439  -0.00000   0.00000   0.00000   0.00000   1.94439
   A26        1.90571   0.00000   0.00000   0.00000   0.00000   1.90572
   A27        1.90774  -0.00000   0.00000  -0.00001  -0.00001   1.90773
   A28        1.98229  -0.00000   0.00000  -0.00000  -0.00000   1.98229
   A29        1.89320   0.00000   0.00000   0.00000   0.00000   1.89320
   A30        1.93992  -0.00000   0.00000  -0.00000  -0.00000   1.93992
   A31        1.89643  -0.00000   0.00000  -0.00001  -0.00001   1.89642
   A32        1.88507   0.00000   0.00000   0.00000   0.00000   1.88508
   A33        1.86283  -0.00000   0.00000   0.00000   0.00000   1.86284
   A34        1.91391   0.00000   0.00000   0.00000   0.00000   1.91391
   A35        1.91737  -0.00000   0.00000  -0.00001  -0.00001   1.91736
   A36        1.96138  -0.00000   0.00000   0.00001   0.00001   1.96140
   A37        1.89482   0.00000   0.00000  -0.00000  -0.00000   1.89481
   A38        1.89194  -0.00000   0.00000  -0.00000  -0.00000   1.89194
   A39        1.88300   0.00000   0.00000  -0.00000  -0.00000   1.88299
   A40        1.92952   0.00000   0.00000   0.00001   0.00001   1.92952
   A41        1.90800  -0.00000   0.00000  -0.00001  -0.00001   1.90799
   A42        1.94155  -0.00000   0.00000   0.00000   0.00000   1.94156
   A43        1.89217   0.00000   0.00000   0.00000   0.00000   1.89217
   A44        1.89318   0.00000   0.00000   0.00000   0.00000   1.89318
   A45        1.89848   0.00000   0.00000  -0.00000  -0.00000   1.89848
   A46        1.91737  -0.00000   0.00000  -0.00001  -0.00001   1.91736
   A47        1.91391   0.00000   0.00000   0.00000   0.00000   1.91391
   A48        1.96138  -0.00000   0.00000   0.00001   0.00001   1.96140
   A49        1.89482   0.00000   0.00000  -0.00000  -0.00000   1.89481
   A50        1.88300   0.00000   0.00000  -0.00000  -0.00000   1.88299
   A51        1.89194  -0.00000   0.00000  -0.00000  -0.00000   1.89194
   A52        1.92952   0.00000   0.00000   0.00001   0.00001   1.92952
   A53        1.94155  -0.00000   0.00000   0.00000   0.00000   1.94156
   A54        1.90800  -0.00000   0.00000  -0.00001  -0.00001   1.90799
   A55        1.89318   0.00000   0.00000   0.00000   0.00000   1.89318
   A56        1.89217   0.00000   0.00000   0.00000   0.00000   1.89217
   A57        1.89848   0.00000   0.00000  -0.00000  -0.00000   1.89848
    D1        1.02869  -0.00000   0.00000  -0.00003  -0.00003   1.02867
    D2       -3.12454  -0.00000   0.00000  -0.00003  -0.00003  -3.12456
    D3       -1.08170  -0.00000   0.00000  -0.00002  -0.00002  -1.08173
    D4        3.12819   0.00000   0.00000  -0.00002  -0.00002   3.12817
    D5       -1.02504   0.00000   0.00000  -0.00002  -0.00002  -1.02506
    D6        1.01779   0.00000   0.00000  -0.00002  -0.00002   1.01777
    D7       -1.10926   0.00000   0.00000  -0.00003  -0.00003  -1.10929
    D8        1.02069  -0.00000   0.00000  -0.00003  -0.00003   1.02066
    D9        3.06352  -0.00000   0.00000  -0.00002  -0.00002   3.06350
   D10       -1.02869   0.00000   0.00000   0.00003   0.00003  -1.02867
   D11        1.08170   0.00000   0.00000   0.00002   0.00002   1.08173
   D12        3.12454   0.00000   0.00000   0.00003   0.00003   3.12456
   D13       -3.12819  -0.00000   0.00000   0.00002   0.00002  -3.12817
   D14       -1.01779  -0.00000   0.00000   0.00002   0.00002  -1.01777
   D15        1.02504  -0.00000   0.00000   0.00002   0.00002   1.02506
   D16        1.10926  -0.00000   0.00000   0.00003   0.00003   1.10929
   D17       -3.06352   0.00000   0.00000   0.00002   0.00002  -3.06350
   D18       -1.02069   0.00000   0.00000   0.00003   0.00003  -1.02067
   D19       -0.79390  -0.00000   0.00000  -0.00006  -0.00006  -0.79396
   D20        1.32315  -0.00000   0.00000  -0.00004  -0.00004   1.32311
   D21       -2.85124  -0.00000   0.00000  -0.00005  -0.00005  -2.85129
   D22       -2.95401  -0.00000   0.00000  -0.00006  -0.00006  -2.95407
   D23       -0.83696  -0.00000   0.00000  -0.00004  -0.00004  -0.83700
   D24        1.27184  -0.00000   0.00000  -0.00005  -0.00005   1.27179
   D25        1.31468  -0.00000   0.00000  -0.00006  -0.00006   1.31463
   D26       -2.85145   0.00000   0.00000  -0.00004  -0.00004  -2.85149
   D27       -0.74265  -0.00000   0.00000  -0.00005  -0.00005  -0.74270
   D28        0.61426   0.00000   0.00000   0.00016   0.00016   0.61441
   D29       -2.90127   0.00000   0.00000   0.00017   0.00017  -2.90110
   D30       -1.52658   0.00000   0.00000   0.00015   0.00015  -1.52643
   D31        1.24107   0.00000   0.00000   0.00016   0.00016   1.24123
   D32        2.68991   0.00000   0.00000   0.00015   0.00015   2.69007
   D33       -0.82562   0.00000   0.00000   0.00016   0.00016  -0.82545
   D34        1.18627  -0.00000   0.00000   0.00006   0.00006   1.18633
   D35       -3.01578  -0.00000   0.00000   0.00005   0.00005  -3.01572
   D36       -0.91028  -0.00000   0.00000   0.00006   0.00006  -0.91022
   D37       -2.96792   0.00000   0.00000   0.00005   0.00005  -2.96786
   D38       -0.88678   0.00000   0.00000   0.00005   0.00005  -0.88673
   D39        1.21871   0.00000   0.00000   0.00006   0.00006   1.21877
   D40       -0.92133  -0.00000   0.00000   0.00006   0.00006  -0.92127
   D41        1.15980   0.00000   0.00000   0.00006   0.00006   1.15986
   D42       -3.01789   0.00000   0.00000   0.00007   0.00007  -3.01782
   D43        1.11528   0.00000   0.00000   0.00002   0.00002   1.11530
   D44       -3.06333   0.00000   0.00000   0.00003   0.00003  -3.06331
   D45       -0.96638   0.00000   0.00000   0.00002   0.00002  -0.96636
   D46       -0.97253  -0.00000   0.00000   0.00004   0.00004  -0.97249
   D47        1.13205   0.00000   0.00000   0.00005   0.00005   1.13209
   D48       -3.05419  -0.00000   0.00000   0.00004   0.00004  -3.05415
   D49       -3.03689  -0.00000   0.00000   0.00002   0.00002  -3.03687
   D50       -0.93232  -0.00000   0.00000   0.00003   0.00003  -0.93229
   D51        1.16464  -0.00000   0.00000   0.00002   0.00002   1.16466
   D52       -0.61426  -0.00000   0.00000  -0.00016  -0.00016  -0.61441
   D53        1.52658  -0.00000   0.00000  -0.00015  -0.00015   1.52643
   D54       -2.68991  -0.00000   0.00000  -0.00015  -0.00015  -2.69007
   D55        2.90127  -0.00000   0.00000  -0.00017  -0.00017   2.90110
   D56       -1.24107  -0.00000   0.00000  -0.00016  -0.00016  -1.24123
   D57        0.82562  -0.00000   0.00000  -0.00016  -0.00016   0.82545
   D58        0.79390   0.00000   0.00000   0.00006   0.00006   0.79396
   D59       -1.31468   0.00000   0.00000   0.00006   0.00006  -1.31462
   D60        2.95401   0.00000   0.00000   0.00006   0.00006   2.95407
   D61       -1.32315   0.00000   0.00000   0.00004   0.00004  -1.32311
   D62        2.85145  -0.00000   0.00000   0.00004   0.00004   2.85149
   D63        0.83696   0.00000   0.00000   0.00004   0.00004   0.83700
   D64        2.85124   0.00000   0.00000   0.00005   0.00005   2.85129
   D65        0.74265   0.00000   0.00000   0.00005   0.00005   0.74270
   D66       -1.27183   0.00000   0.00000   0.00005   0.00005  -1.27179
   D67        0.88678  -0.00000   0.00000  -0.00005  -0.00005   0.88673
   D68        2.96792  -0.00000   0.00000  -0.00005  -0.00005   2.96787
   D69       -1.21871  -0.00000   0.00000  -0.00006  -0.00006  -1.21877
   D70        3.01578   0.00000   0.00000  -0.00005  -0.00005   3.01572
   D71       -1.18627   0.00000   0.00000  -0.00006  -0.00006  -1.18633
   D72        0.91028   0.00000   0.00000  -0.00006  -0.00006   0.91022
   D73       -1.15980  -0.00000   0.00000  -0.00006  -0.00006  -1.15986
   D74        0.92133   0.00000   0.00000  -0.00006  -0.00006   0.92127
   D75        3.01789  -0.00000   0.00000  -0.00007  -0.00007   3.01782
   D76        0.97253   0.00000   0.00000  -0.00004  -0.00004   0.97249
   D77        3.05418   0.00000   0.00000  -0.00004  -0.00004   3.05415
   D78       -1.13205  -0.00000   0.00000  -0.00005  -0.00005  -1.13209
   D79       -1.11528  -0.00000   0.00000  -0.00002  -0.00002  -1.11530
   D80        0.96638  -0.00000   0.00000  -0.00002  -0.00002   0.96636
   D81        3.06333  -0.00000   0.00000  -0.00003  -0.00003   3.06331
   D82        3.03689   0.00000   0.00000  -0.00002  -0.00002   3.03687
   D83       -1.16464   0.00000   0.00000  -0.00002  -0.00002  -1.16466
   D84        0.93232   0.00000   0.00000  -0.00003  -0.00003   0.93229
         Item               Value     Threshold  Converged?
 Maximum Force            0.000002     0.000450     YES
 RMS     Force            0.000000     0.000300     YES
 Maximum Displacement     0.000611     0.001800     YES
 RMS     Displacement     0.000081     0.001200     YES
 Predicted change in Energy=-9.837882D-10
 Optimization completed.
    -- Stationary point found.
                           ----------------------------
                           !   Optimized Parameters   !
                           ! (Angstroms and Degrees)  !
 --------------------------                            --------------------------
 ! Name  Definition              Value          Derivative Info.                !
 --------------------------------------------------------------------------------
 ! R1    R(1,2)                  1.5229         -DE/DX =    0.0                 !
 ! R2    R(1,6)                  1.5229         -DE/DX =    0.0                 !
 ! R3    R(1,12)                 1.1029         -DE/DX =    0.0                 !
 ! R4    R(1,13)                 1.1041         -DE/DX =    0.0                 !
 ! R5    R(2,3)                  1.5368         -DE/DX =    0.0                 !
 ! R6    R(2,14)                 1.1036         -DE/DX =    0.0                 !
 ! R7    R(2,15)                 1.1055         -DE/DX =    0.0                 !
 ! R8    R(3,4)                  1.4908         -DE/DX =    0.0                 !
 ! R9    R(3,10)                 1.5381         -DE/DX =    0.0                 !
 ! R10   R(3,11)                 1.5321         -DE/DX =    0.0                 !
 ! R11   R(4,5)                  1.4908         -DE/DX =    0.0                 !
 ! R12   R(4,9)                  1.2669         -DE/DX =    0.0                 !
 ! R13   R(5,6)                  1.5368         -DE/DX =    0.0                 !
 ! R14   R(5,7)                  1.5381         -DE/DX =    0.0                 !
 ! R15   R(5,8)                  1.5321         -DE/DX =    0.0                 !
 ! R16   R(6,16)                 1.1055         -DE/DX =    0.0                 !
 ! R17   R(6,17)                 1.1036         -DE/DX =    0.0                 !
 ! R18   R(7,18)                 1.1023         -DE/DX =    0.0                 !
 ! R19   R(7,19)                 1.1033         -DE/DX =    0.0                 !
 ! R20   R(7,20)                 1.1017         -DE/DX =    0.0                 !
 ! R21   R(8,21)                 1.1033         -DE/DX =    0.0                 !
 ! R22   R(8,22)                 1.1032         -DE/DX =    0.0                 !
 ! R23   R(8,23)                 1.1            -DE/DX =    0.0                 !
 ! R24   R(10,24)                1.1033         -DE/DX =    0.0                 !
 ! R25   R(10,25)                1.1023         -DE/DX =    0.0                 !
 ! R26   R(10,26)                1.1017         -DE/DX =    0.0                 !
 ! R27   R(11,27)                1.1033         -DE/DX =    0.0                 !
 ! R28   R(11,28)                1.1            -DE/DX =    0.0                 !
 ! R29   R(11,29)                1.1032         -DE/DX =    0.0                 !
 ! A1    A(2,1,6)              109.0187         -DE/DX =    0.0                 !
 ! A2    A(2,1,12)             109.7821         -DE/DX =    0.0                 !
 ! A3    A(2,1,13)             110.9607         -DE/DX =    0.0                 !
 ! A4    A(6,1,12)             109.7821         -DE/DX =    0.0                 !
 ! A5    A(6,1,13)             110.9607         -DE/DX =    0.0                 !
 ! A6    A(12,1,13)            106.305          -DE/DX =    0.0                 !
 ! A7    A(1,2,3)              113.577          -DE/DX =    0.0                 !
 ! A8    A(1,2,14)             111.1494         -DE/DX =    0.0                 !
 ! A9    A(1,2,15)             108.4724         -DE/DX =    0.0                 !
 ! A10   A(3,2,14)             108.0067         -DE/DX =    0.0                 !
 ! A11   A(3,2,15)             108.6574         -DE/DX =    0.0                 !
 ! A12   A(14,2,15)            106.7325         -DE/DX =    0.0                 !
 ! A13   A(2,3,4)              110.2771         -DE/DX =    0.0                 !
 ! A14   A(2,3,10)             111.4053         -DE/DX =    0.0                 !
 ! A15   A(2,3,11)             109.1894         -DE/DX =    0.0                 !
 ! A16   A(4,3,10)             109.0992         -DE/DX =    0.0                 !
 ! A17   A(4,3,11)             107.4764         -DE/DX =    0.0                 !
 ! A18   A(10,3,11)            109.3055         -DE/DX =    0.0                 !
 ! A19   A(3,4,5)              124.3748         -DE/DX =    0.0                 !
 ! A20   A(3,4,9)              116.1541         -DE/DX =    0.0                 !
 ! A21   A(5,4,9)              116.1541         -DE/DX =    0.0                 !
 ! A22   A(4,5,6)              110.2771         -DE/DX =    0.0                 !
 ! A23   A(4,5,7)              109.0992         -DE/DX =    0.0                 !
 ! A24   A(4,5,8)              107.4764         -DE/DX =    0.0                 !
 ! A25   A(6,5,7)              111.4053         -DE/DX =    0.0                 !
 ! A26   A(6,5,8)              109.1894         -DE/DX =    0.0                 !
 ! A27   A(7,5,8)              109.3055         -DE/DX =    0.0                 !
 ! A28   A(1,6,5)              113.5771         -DE/DX =    0.0                 !
 ! A29   A(1,6,16)             108.4725         -DE/DX =    0.0                 !
 ! A30   A(1,6,17)             111.1494         -DE/DX =    0.0                 !
 ! A31   A(5,6,16)             108.6574         -DE/DX =    0.0                 !
 ! A32   A(5,6,17)             108.0067         -DE/DX =    0.0                 !
 ! A33   A(16,6,17)            106.7325         -DE/DX =    0.0                 !
 ! A34   A(5,7,18)             109.6587         -DE/DX =    0.0                 !
 ! A35   A(5,7,19)             109.857          -DE/DX =    0.0                 !
 ! A36   A(5,7,20)             112.3791         -DE/DX =    0.0                 !
 ! A37   A(18,7,19)            108.5649         -DE/DX =    0.0                 !
 ! A38   A(18,7,20)            108.4002         -DE/DX =    0.0                 !
 ! A39   A(19,7,20)            107.8878         -DE/DX =    0.0                 !
 ! A40   A(5,8,21)             110.5531         -DE/DX =    0.0                 !
 ! A41   A(5,8,22)             109.3204         -DE/DX =    0.0                 !
 ! A42   A(5,8,23)             111.2429         -DE/DX =    0.0                 !
 ! A43   A(21,8,22)            108.4134         -DE/DX =    0.0                 !
 ! A44   A(21,8,23)            108.4713         -DE/DX =    0.0                 !
 ! A45   A(22,8,23)            108.7751         -DE/DX =    0.0                 !
 ! A46   A(3,10,24)            109.8571         -DE/DX =    0.0                 !
 ! A47   A(3,10,25)            109.6587         -DE/DX =    0.0                 !
 ! A48   A(3,10,26)            112.3791         -DE/DX =    0.0                 !
 ! A49   A(24,10,25)           108.5649         -DE/DX =    0.0                 !
 ! A50   A(24,10,26)           107.8878         -DE/DX =    0.0                 !
 ! A51   A(25,10,26)           108.4002         -DE/DX =    0.0                 !
 ! A52   A(3,11,27)            110.5531         -DE/DX =    0.0                 !
 ! A53   A(3,11,28)            111.2429         -DE/DX =    0.0                 !
 ! A54   A(3,11,29)            109.3204         -DE/DX =    0.0                 !
 ! A55   A(27,11,28)           108.4713         -DE/DX =    0.0                 !
 ! A56   A(27,11,29)           108.4135         -DE/DX =    0.0                 !
 ! A57   A(28,11,29)           108.7751         -DE/DX =    0.0                 !
 ! D1    D(6,1,2,3)             58.9398         -DE/DX =    0.0                 !
 ! D2    D(6,1,2,14)          -179.0228         -DE/DX =    0.0                 !
 ! D3    D(6,1,2,15)           -61.9771         -DE/DX =    0.0                 !
 ! D4    D(12,1,2,3)           179.2321         -DE/DX =    0.0                 !
 ! D5    D(12,1,2,14)          -58.7305         -DE/DX =    0.0                 !
 ! D6    D(12,1,2,15)           58.3152         -DE/DX =    0.0                 !
 ! D7    D(13,1,2,3)           -63.5561         -DE/DX =    0.0                 !
 ! D8    D(13,1,2,14)           58.4813         -DE/DX =    0.0                 !
 ! D9    D(13,1,2,15)          175.527          -DE/DX =    0.0                 !
 ! D10   D(2,1,6,5)            -58.9398         -DE/DX =    0.0                 !
 ! D11   D(2,1,6,16)            61.9771         -DE/DX =    0.0                 !
 ! D12   D(2,1,6,17)           179.0228         -DE/DX =    0.0                 !
 ! D13   D(12,1,6,5)          -179.2322         -DE/DX =    0.0                 !
 ! D14   D(12,1,6,16)          -58.3152         -DE/DX =    0.0                 !
 ! D15   D(12,1,6,17)           58.7305         -DE/DX =    0.0                 !
 ! D16   D(13,1,6,5)            63.556          -DE/DX =    0.0                 !
 ! D17   D(13,1,6,16)         -175.527          -DE/DX =    0.0                 !
 ! D18   D(13,1,6,17)          -58.4813         -DE/DX =    0.0                 !
 ! D19   D(1,2,3,4)            -45.4873         -DE/DX =    0.0                 !
 ! D20   D(1,2,3,10)            75.8111         -DE/DX =    0.0                 !
 ! D21   D(1,2,3,11)          -163.3639         -DE/DX =    0.0                 !
 ! D22   D(14,2,3,4)          -169.2525         -DE/DX =    0.0                 !
 ! D23   D(14,2,3,10)          -47.9542         -DE/DX =    0.0                 !
 ! D24   D(14,2,3,11)           72.8708         -DE/DX =    0.0                 !
 ! D25   D(15,2,3,4)            75.3258         -DE/DX =    0.0                 !
 ! D26   D(15,2,3,10)         -163.3759         -DE/DX =    0.0                 !
 ! D27   D(15,2,3,11)          -42.5509         -DE/DX =    0.0                 !
 ! D28   D(2,3,4,5)             35.1943         -DE/DX =    0.0                 !
 ! D29   D(2,3,4,9)           -166.2307         -DE/DX =    0.0                 !
 ! D30   D(10,3,4,5)           -87.4669         -DE/DX =    0.0                 !
 ! D31   D(10,3,4,9)            71.1081         -DE/DX =    0.0                 !
 ! D32   D(11,3,4,5)           154.1207         -DE/DX =    0.0                 !
 ! D33   D(11,3,4,9)           -47.3043         -DE/DX =    0.0                 !
 ! D34   D(2,3,10,24)           67.9684         -DE/DX =    0.0                 !
 ! D35   D(2,3,10,25)         -172.7913         -DE/DX =    0.0                 !
 ! D36   D(2,3,10,26)          -52.1554         -DE/DX =    0.0                 !
 ! D37   D(4,3,10,24)         -170.0492         -DE/DX =    0.0                 !
 ! D38   D(4,3,10,25)          -50.8089         -DE/DX =    0.0                 !
 ! D39   D(4,3,10,26)           69.827          -DE/DX =    0.0                 !
 ! D40   D(11,3,10,24)         -52.7885         -DE/DX =    0.0                 !
 ! D41   D(11,3,10,25)          66.4518         -DE/DX =    0.0                 !
 ! D42   D(11,3,10,26)        -172.9124         -DE/DX =    0.0                 !
 ! D43   D(2,3,11,27)           63.9008         -DE/DX =    0.0                 !
 ! D44   D(2,3,11,28)         -175.5161         -DE/DX =    0.0                 !
 ! D45   D(2,3,11,29)          -55.3695         -DE/DX =    0.0                 !
 ! D46   D(4,3,11,27)          -55.7217         -DE/DX =    0.0                 !
 ! D47   D(4,3,11,28)           64.8614         -DE/DX =    0.0                 !
 ! D48   D(4,3,11,29)         -174.9919         -DE/DX =    0.0                 !
 ! D49   D(10,3,11,27)        -174.0009         -DE/DX =    0.0                 !
 ! D50   D(10,3,11,28)         -53.4178         -DE/DX =    0.0                 !
 ! D51   D(10,3,11,29)          66.7288         -DE/DX =    0.0                 !
 ! D52   D(3,4,5,6)            -35.1943         -DE/DX =    0.0                 !
 ! D53   D(3,4,5,7)             87.4668         -DE/DX =    0.0                 !
 ! D54   D(3,4,5,8)           -154.1208         -DE/DX =    0.0                 !
 ! D55   D(9,4,5,6)            166.2307         -DE/DX =    0.0                 !
 ! D56   D(9,4,5,7)            -71.1081         -DE/DX =    0.0                 !
 ! D57   D(9,4,5,8)             47.3043         -DE/DX =    0.0                 !
 ! D58   D(4,5,6,1)             45.4873         -DE/DX =    0.0                 !
 ! D59   D(4,5,6,16)           -75.3257         -DE/DX =    0.0                 !
 ! D60   D(4,5,6,17)           169.2526         -DE/DX =    0.0                 !
 ! D61   D(7,5,6,1)            -75.8111         -DE/DX =    0.0                 !
 ! D62   D(7,5,6,16)           163.3759         -DE/DX =    0.0                 !
 ! D63   D(7,5,6,17)            47.9542         -DE/DX =    0.0                 !
 ! D64   D(8,5,6,1)            163.364          -DE/DX =    0.0                 !
 ! D65   D(8,5,6,16)            42.5509         -DE/DX =    0.0                 !
 ! D66   D(8,5,6,17)           -72.8708         -DE/DX =    0.0                 !
 ! D67   D(4,5,7,18)            50.8089         -DE/DX =    0.0                 !
 ! D68   D(4,5,7,19)           170.0492         -DE/DX =    0.0                 !
 ! D69   D(4,5,7,20)           -69.827          -DE/DX =    0.0                 !
 ! D70   D(6,5,7,18)           172.7913         -DE/DX =    0.0                 !
 ! D71   D(6,5,7,19)           -67.9684         -DE/DX =    0.0                 !
 ! D72   D(6,5,7,20)            52.1554         -DE/DX =    0.0                 !
 ! D73   D(8,5,7,18)           -66.4518         -DE/DX =    0.0                 !
 ! D74   D(8,5,7,19)            52.7885         -DE/DX =    0.0                 !
 ! D75   D(8,5,7,20)           172.9123         -DE/DX =    0.0                 !
 ! D76   D(4,5,8,21)            55.7216         -DE/DX =    0.0                 !
 ! D77   D(4,5,8,22)           174.9919         -DE/DX =    0.0                 !
 ! D78   D(4,5,8,23)           -64.8615         -DE/DX =    0.0                 !
 ! D79   D(6,5,8,21)           -63.9008         -DE/DX =    0.0                 !
 ! D80   D(6,5,8,22)            55.3695         -DE/DX =    0.0                 !
 ! D81   D(6,5,8,23)           175.5161         -DE/DX =    0.0                 !
 ! D82   D(7,5,8,21)           174.0009         -DE/DX =    0.0                 !
 ! D83   D(7,5,8,22)           -66.7288         -DE/DX =    0.0                 !
 ! D84   D(7,5,8,23)            53.4178         -DE/DX =    0.0                 !
 --------------------------------------------------------------------------------
 Step   1 in ReCalcFC=50 IGetFC= 0 compute gradient.
 GradGradGradGradGradGradGradGradGradGradGradGradGradGradGradGradGradGrad

 Leave Link  103 at Wed Feb 28 21:13:54 2024, MaxMem=  2147483648 cpu:               3.7 elap:               0.2
 (Enter /software/gaussian-16RevA.03-el7-x86_64/g16/l9999.exe)

 ----------------------------------------------------------------------

 Electric dipole moment (input orientation):
 (Debye = 10**-18 statcoulomb cm , SI units = C m)
                  (au)            (Debye)         (10**-30 SI)
   Tot        0.150669D+01      0.382961D+01      0.127742D+02
   x          0.275574D-04      0.700440D-04      0.233642D-03
   y          0.150225D+01      0.381833D+01      0.127366D+02
   z          0.115560D+00      0.293723D+00      0.979756D+00

 Dipole polarizability, Alpha (input orientation).
 (esu units = cm**3 , SI units = C**2 m**2 J**-1)
 Alpha(0;0):
               (au)            (10**-24 esu)      (10**-40 SI)
   iso        0.125289D+03      0.185660D+02      0.206574D+02
   aniso      0.141148D+02      0.209159D+01      0.232721D+01
   xx         0.131484D+03      0.194839D+02      0.216787D+02
   yx        -0.411508D-04     -0.609792D-05     -0.678485D-05
   yy         0.128326D+03      0.190160D+02      0.211582D+02
   zx         0.254459D-03      0.377069D-04      0.419546D-04
   zy         0.549544D-01      0.814340D-02      0.906076D-02
   zz         0.116058D+03      0.171980D+02      0.191354D+02

 ----------------------------------------------------------------------

 Dipole orientation:
     6          0.00003956          0.30956469          3.99298456
     6         -2.34312254          1.13201302          2.53857660
     6         -2.49166819          0.02949033         -0.14411857
     7          0.00004197          0.26743796         -1.43680830
     6          2.49173411          0.02931943         -0.14411493
     6          2.34325988          1.13185276          2.53857980
     6          3.27617623         -2.76902246         -0.09901798
     6          4.42007841          1.53917629         -1.68811589
     8          0.00003087         -0.09498477         -3.80334646
     6         -3.27630173         -2.76879795         -0.09902368
     6         -4.41990641          1.53948030         -1.68812164
     1          0.00006823          1.18566511          5.88414722
     1         -0.00003141         -1.75367568          4.30323036
     1         -4.08487236          0.59659584          3.55299182
     1         -2.34152550          3.21679881          2.40518132
     1          2.34180538          3.21663860          2.40518397
     1          4.08497178          0.59631678          3.55299740
     1          3.12958834         -3.56889159         -2.01677170
     1          5.25258531         -2.94022761          0.54231843
     1          2.08845260         -3.90466841          1.17922252
     1          3.79014626          3.51348111         -1.91674503
     1          6.25086394          1.54337620         -0.69086014
     1          4.68827670          0.71064878         -3.57566800
     1         -5.25272344         -2.93986890          0.54230960
     1         -3.12976539         -3.56867619         -2.01677756
     1         -2.08865704         -3.90452511          1.17921803
     1         -3.78983857          3.51374210         -1.91674825
     1         -4.68815775          0.71097265         -3.57567475
     1         -6.25069345          1.54380479         -0.69086917

 Electric dipole moment (dipole orientation):
 (Debye = 10**-18 statcoulomb cm , SI units = C m)
                  (au)            (Debye)         (10**-30 SI)
   Tot        0.150669D+01      0.382961D+01      0.127742D+02
   x          0.000000D+00      0.000000D+00      0.000000D+00
   y          0.000000D+00      0.000000D+00      0.000000D+00
   z          0.150669D+01      0.382961D+01      0.127742D+02

 Dipole polarizability, Alpha (dipole orientation).
 (esu units = cm**3 , SI units = C**2 m**2 J**-1)
 Alpha(0;0):
               (au)            (10**-24 esu)      (10**-40 SI)
   iso        0.125289D+03      0.185660D+02      0.206574D+02
   aniso      0.141148D+02      0.209159D+01      0.232721D+01
   xx         0.131484D+03      0.194839D+02      0.216787D+02
   yx        -0.533219D-03     -0.790149D-04     -0.879159D-04
   yy         0.116122D+03      0.172075D+02      0.191459D+02
   zx         0.523667D-04      0.775995D-05      0.863410D-05
   zy         0.883895D+00      0.130980D+00      0.145735D+00
   zz         0.128263D+03      0.190066D+02      0.211477D+02

 ----------------------------------------------------------------------
 1\1\GINC-MIDWAY2-0620\Freq\UwB97XD\def2SVPP\C9H18N1O1(2)\ALESSANDRI\28
 -Feb-2024\0\\#P Geom=AllCheck Guess=TCheck SCRF=Check GenChk UwB97XD/d
 ef2SVPP Freq\\Cavity TEMPO THF\\0,2\C,0.0000568065,2.1193365778,-0.001
 2696307\C,-1.2399126255,1.3853656306,-0.494215613\C,-1.3185356796,-0.0
 748203675,-0.0213848366\N,0.0000059057,-0.7472321289,-0.199420637\C,1.
 3185672512,-0.0748700487,-0.0213427524\C,1.2400141541,1.3853188118,-0.
 4941762869\C,1.7337016603,-0.1646588021,1.4569368195\C,2.3389746299,-0
 .8282504951,-0.8806557953\O,-0.000019625,-2.0105709069,-0.104249893\C,
 -1.7337203536,-0.1645939663,1.4568815518\C,-2.3389438808,-0.8281619564
 ,-0.8807308671\H,0.0000824317,3.1527069952,-0.3867601678\H,0.000040747
 3,2.1992876897,1.0999259425\H,-2.1615923227,1.8988745726,-0.1705309193
 \H,-1.2390874852,1.3995985618,-1.5996011701\H,1.2392244885,1.399551482
 8,-1.5995618613\H,2.1617030168,1.8987929675,-0.1704625301\H,1.65611929
 44,-1.2089638598,1.8011284935\H,2.7795800454,0.1667557412,1.5732784683
 \H,1.1052079338,0.4636829007,2.1080157482\H,2.0056089847,-0.8687431106
 ,-1.9316086775\H,3.3077942268,-0.3019259017,-0.8424140603\H,2.48088821
 13,-1.8577874899,-0.5201216617\H,-2.779589941,0.1668597985,1.573190530
 1\H,-1.6561880563,-1.2089021077,1.801075186\H,-1.1052232966,0.46372378
 75,2.1079803901\H,-2.0055462497,-0.8686662796,-1.9316731485\H,-2.48090
 72245,-1.8576938724,-0.5202020632\H,-3.3077450479,-0.3018012241,-0.842
 5195581\\Version=ES64L-G16RevA.03\HF=-483.20496\S2=0.753915\S2-1=0.\S2
 A=0.750011\RMSD=1.305e-09\RMSF=9.134e-07\ZeroPoint=0.2640427\Thermal=0
 .2756865\Dipole=0.0000276,1.5022477,0.1155597\DipoleDeriv=0.07981,-0.0
 000022,-0.000001,-0.0000013,0.0260057,-0.0163225,0.0000002,0.0332335,0
 .1226263,0.0467002,-0.0479182,-0.0064152,0.0147959,0.0632245,-0.015231
 5,0.0168788,-0.010184,0.1031607,0.4739038,-0.0720589,-0.0244586,-0.194
 8552,0.2702638,0.0225761,-0.0114107,-0.0897331,0.3656015,-0.1202684,0.
 0000013,0.0000051,0.0000046,0.1096344,0.0644971,0.0000071,0.1856977,-0
 .3396452,0.4739117,0.0720548,0.0244627,0.1948472,0.2702531,0.0225817,0
 .011411,-0.0897309,0.3656028,0.0467032,0.0479188,0.006413,-0.0147954,0
 .0632249,-0.0152329,-0.0168802,-0.010182,0.1031604,-0.0435059,-0.05268
 91,0.0179497,-0.0357171,-0.0447301,0.0187771,-0.0207821,0.0319637,-0.0
 752796,-0.0049863,0.0158601,0.0028528,0.0367553,-0.0312729,-0.0280833,
 0.0074353,-0.0021763,0.0172835,-0.7081738,-0.0000038,-0.0000075,0.0000
 015,-0.6897926,-0.0798872,-0.0000065,0.0071988,-0.3329832,-0.0435033,0
 .0526892,-0.017949,0.0357165,-0.0447329,0.0187768,0.0207838,0.0319642,
 -0.0752787,-0.0049882,-0.0158605,-0.0028548,-0.0367555,-0.0312713,-0.0
 280844,-0.0074362,-0.0021769,0.0172829,0.0110262,-0.0000054,0.,-0.0000
 048,-0.1946338,0.053524,0.0000009,0.0931388,0.0626071,0.0011744,0.0000
 027,0.0000027,0.0000018,0.1013987,0.0036152,0.0000017,-0.054428,-0.178
 1235,-0.1500811,0.0848997,0.0331785,0.0609214,0.0035036,-0.0112943,0.0
 671233,-0.0424992,0.0662016,0.0519245,-0.0323896,0.0299608,-0.0329474,
 0.0217966,-0.0097646,-0.0255375,0.0307533,-0.1877899,0.0519268,0.03238
 74,-0.0299535,0.0329466,0.0217938,-0.0097624,0.0255464,0.0307537,-0.18
 77918,-0.1500822,-0.0848924,-0.033186,-0.0609158,0.0035088,-0.0112955,
 -0.0671313,-0.042499,0.0661988,0.1025094,-0.0234579,0.0060941,0.014206
 8,-0.0835815,0.0940674,-0.0038407,0.0281836,0.0360732,-0.1422248,-0.07
 36924,-0.0545505,-0.0719079,0.0774035,-0.0028847,-0.019795,-0.0125891,
 0.0577728,0.0169744,0.0897239,0.0897769,0.0845985,0.01766,-0.0933939,0
 .0687615,-0.0617305,-0.0308807,0.0432603,0.0192588,-0.081832,0.0285876
 ,0.0717444,-0.001396,-0.0181918,-0.0287456,-0.1400433,-0.1159603,-0.07
 28769,0.016518,-0.1095728,0.0347514,-0.0136662,-0.0070695,-0.0339758,0
 .0731504,0.0896933,0.0225817,0.0115312,0.0764942,-0.077065,0.0275783,0
 .0067363,0.0583083,0.047512,-0.1422213,0.073701,0.0545441,0.0719177,0.
 0773973,-0.0028847,0.0197866,-0.0125868,0.0577755,0.10251,0.0234492,-0
 .0060877,-0.0142171,-0.083582,0.0940671,0.0038443,0.028184,0.0360735,0
 .0169725,-0.089721,-0.0897779,-0.0845951,0.0176658,-0.0933897,-0.06876
 24,-0.0617295,-0.0308887,0.0432554,-0.0192566,0.0818377,-0.0285865,0.0
 717459,-0.0014008,0.0181966,-0.0287468,-0.14004,0.0896916,-0.0225871,-
 0.011529,-0.0765015,-0.077059,0.027576,-0.0067326,0.0583078,0.0475113,
 -0.1159522,0.0728831,-0.0165246,0.1095777,0.0347448,-0.013662,0.007062
 7,-0.0339738,0.0731501\Polar=131.4835522,-0.0000412,128.3264936,0.0002
 545,0.0549544,116.0579169\Quadrupole=3.5091181,-4.4731811,0.964063,-0.
 0000948,0.0000346,-0.5475854\PG=C01 [X(C9H18N1O1)]\NImag=0\\0.47540250
 ,0.00000265,0.58626983,-0.00000246,-0.02448457,0.59985296,-0.16818762,
 -0.05032838,-0.03450750,0.57732248,-0.05119221,-0.11282967,-0.01885828
 ,-0.03715554,0.49343576,-0.03899114,-0.02025819,-0.10067927,-0.0286949
 9,0.01931496,0.58862194,0.00009849,-0.02834689,0.01016845,-0.08470518,
 -0.00434610,0.00271117,0.47446908,-0.00721547,-0.01921465,0.00134522,-
 0.00798361,-0.17374163,0.03705581,0.03290085,0.53725777,0.00200829,-0.
 01160029,0.00557253,0.00109232,0.03278647,-0.09298366,0.01324894,-0.00
 648041,0.48980533,-0.00015314,0.00000019,-0.00000002,0.00574234,0.0045
 6274,-0.00236110,-0.15825190,0.00333222,0.01722626,0.54511132,0.000000
 08,0.00317995,-0.00118644,0.03253083,-0.02180415,-0.00439322,0.0163759
 0,-0.09426188,-0.00882816,0.00000457,0.77503497,-0.00000003,-0.0011233
 7,0.00027109,-0.00790948,0.00230187,0.00100986,0.00615052,-0.00314261,
 -0.05915800,0.00000583,-0.02097704,0.15051566,0.00010020,0.02834655,-0
 .01016859,0.00096703,0.00086634,-0.00079501,-0.01530933,-0.00534371,-0
 .00626846,-0.15825189,-0.01637314,-0.00615384,0.47446792,0.00721465,-0
 .01921613,0.00134585,-0.00118166,0.00129877,0.00019304,0.00534462,0.01
 628714,0.00315739,-0.00332958,-0.09426105,-0.00314253,-0.03289782,0.53
 726040,-0.00200890,-0.01159935,0.00557213,-0.00075836,0.00041574,0.000
 17652,0.00626803,0.00315700,0.00182628,-0.01722976,-0.00882804,-0.0591
 5867,-0.01324961,-0.00648108,0.48980445,-0.16818606,0.05033083,0.03450
 465,-0.03576511,0.01207217,0.00786842,0.00096731,0.00118169,0.00075840
 ,0.00574065,-0.03253166,0.00790978,-0.08470455,0.00797881,-0.00109085,
 0.57732324,0.05119481,-0.11283306,-0.01885796,-0.01207122,0.01041062,0
 .00560161,-0.00086631,0.00129882,0.00041562,-0.00456389,-0.02180207,0.
 00230131,0.00434134,-0.17374203,0.03278664,0.03715287,0.49343180,0.038
 98824,-0.02025818,-0.10067695,-0.00786936,0.00560231,0.00373955,0.0007
 9501,0.00019303,0.00017657,0.00236107,-0.00439455,0.00101023,-0.002709
 42,0.03705620,-0.09298378,0.02869527,0.01931537,0.58862379,-0.00022192
 ,-0.00020627,-0.00036736,-0.00032154,-0.00026504,0.00015970,0.00158786
 ,-0.00120537,-0.00045366,-0.02552497,-0.00748154,-0.03548030,-0.080709
 46,0.00454819,-0.02391048,0.00038412,0.00190983,-0.00272655,0.58416506
 ,-0.00056863,0.00055678,0.00070274,-0.00008387,-0.00021790,0.00013023,
 0.00057260,-0.00065704,0.00003957,-0.00942783,-0.00039727,-0.01433763,
 0.00471332,-0.08048335,0.00760746,0.00703821,-0.00426360,0.03344451,0.
 00468819,0.59926363,-0.00031291,-0.00035259,0.00097662,0.00003616,0.00
 001582,-0.00037613,-0.00031084,0.00070985,0.00016115,-0.01404003,-0.00
 712894,-0.00567926,-0.01787649,0.00639522,-0.17829354,-0.00244799,0.00
 730185,-0.01429051,-0.03856749,0.01257571,0.48832749,0.00020436,-0.000
 54384,0.00018311,-0.00014652,-0.00044002,0.00005520,-0.00037385,-0.003
 46529,0.00104738,-0.04451622,0.00977986,0.01728385,-0.12119235,0.03591
 074,0.04262170,-0.00330244,0.00768368,0.00055726,0.00673646,-0.0027338
 8,-0.00086844,0.54706212,-0.00139764,-0.00531535,0.00172623,-0.0003721
 3,-0.00025098,-0.00001240,-0.00074669,-0.00290101,-0.00008193,-0.01289
 946,0.00969086,0.00810644,0.04027105,-0.11086275,-0.03431179,0.0263804
 8,-0.02296808,-0.01631981,-0.00039368,0.00000679,-0.00171981,0.0347330
 9,0.58263444,0.00017458,0.00275838,-0.00070871,0.00027687,-0.00002825,
 0.00028086,-0.00076038,-0.00097099,-0.00076392,0.00105917,0.00450855,0
 .00290814,0.04462296,-0.03519557,-0.11634597,-0.00702289,0.00262340,0.
 00481869,0.02058581,-0.01915117,-0.02841953,0.04572665,-0.03184973,0.5
 6325608,-0.00071450,0.00000004,0.,-0.00734607,0.00201752,0.00246826,0.
 00636868,0.03862099,-0.00542859,-0.10312304,-0.00000901,-0.00000049,0.
 00636660,-0.03862283,0.00542884,-0.00734633,-0.00201725,-0.00246864,0.
 00030669,-0.00074959,0.00044875,-0.00388774,-0.00123922,-0.00040561,0.
 11443287,0.00000004,0.00175298,0.00042536,0.00658085,0.00010236,-0.002
 97888,0.01020524,-0.04703223,0.00212451,-0.00000902,-0.54680493,0.0378
 4887,-0.01020734,-0.04703035,0.00212398,-0.00658047,0.00010267,-0.0029
 7898,0.00135143,-0.00003410,0.00261308,0.00376071,0.00028842,-0.001107
 80,0.00001030,0.63599243,0.,-0.00001739,-0.00022797,-0.00008482,0.0005
 7310,0.00091258,0.00072157,-0.00380776,0.00203559,-0.00000031,0.047531
 51,-0.02521529,-0.00072155,-0.00380899,0.00203573,0.00008459,0.0005729
 9,0.00091250,-0.00017549,-0.00000518,-0.00055232,0.00026993,-0.0000204
 4,0.00061072,0.00000064,-0.03967265,0.01651373,-0.00022191,0.00020632,
 0.00036737,0.00038361,-0.00191025,0.00272827,-0.08071114,-0.00454838,0
 .02391390,-0.02552591,0.00748271,0.03547914,0.00158785,0.00120525,0.00
 045371,-0.00032150,0.00026504,-0.00015972,-0.00075603,-0.00080073,-0.0
 0080629,-0.00061692,-0.00026135,-0.00011586,0.00030668,-0.00135152,0.0
 0017553,0.58416261,0.00056863,0.00055674,0.00070278,-0.00703947,-0.004
 26329,0.03344418,-0.00471354,-0.08048300,0.00760648,0.00942921,-0.0003
 9790,-0.01433867,-0.00057270,-0.00065708,0.00003954,0.00008390,-0.0002
 1792,0.00013022,0.00080077,0.00096073,0.00037542,0.00027442,0.00017247
 ,-0.00003577,0.00074960,-0.00003405,-0.00000517,-0.00468798,0.59926409
 ,0.00031286,-0.00035254,0.00097660,0.00244873,0.00730169,-0.01429033,0
 .01787985,0.00639441,-0.17829218,0.01403913,-0.00712923,-0.00567772,0.
 00031095,0.00070986,0.00016114,-0.00003615,0.00001585,-0.00037614,0.00
 080630,0.00037533,0.00065214,-0.00012045,-0.00002583,-0.00014712,-0.00
 044861,0.00261304,-0.00055234,0.03857101,0.01257424,0.48832983,0.00020
 444,0.00054355,-0.00018301,-0.00330393,-0.00768453,-0.00055813,-0.1211
 9240,-0.03590919,-0.04262319,-0.04451541,-0.00977795,-0.01728504,-0.00
 037368,0.00346522,-0.00104737,-0.00014648,0.00044003,-0.00005522,-0.00
 061693,-0.00027439,0.00012044,-0.00040362,-0.00053864,-0.00032141,-0.0
 0388789,-0.00376047,-0.00027005,0.00673721,0.00273425,0.00086950,0.547
 06213,0.00139737,-0.00531544,0.00172629,-0.02638075,-0.02296683,-0.016
 32065,-0.04026956,-0.11085983,-0.03431154,0.01290120,0.00969078,0.0081
 0749,0.00074659,-0.00290117,-0.00008186,0.00037213,-0.00025102,-0.0000
 1238,0.00026138,0.00017247,-0.00002583,0.00053867,0.00054948,0.0002109
 6,0.00123951,0.00028855,-0.00002034,0.00039349,0.00000669,-0.00171981,
 -0.03473059,0.58263708,-0.00017445,0.00275840,-0.00070873,0.00702274,0
 .00262289,0.00481889,-0.04462447,-0.03519507,-0.11634878,-0.00106050,0
 .00450828,0.00290756,0.00076036,-0.00097090,-0.00076393,-0.00027690,-0
 .00002823,0.00028086,0.00011585,-0.00003579,-0.00014711,0.00032140,0.0
 0021093,0.00033467,0.00040540,-0.00110791,0.00061069,-0.02058541,-0.01
 915029,-0.02842014,-0.04572847,-0.03184909,0.56325303,-0.04700642,-0.0
 0000590,0.00000227,-0.00033824,-0.02765857,0.01150047,-0.00485486,-0.0
 0074098,-0.00307488,-0.00051119,0.00000002,0.,-0.00485489,0.00074122,0
 .00307467,-0.00033687,0.02765848,-0.01150039,0.00018667,0.00004892,0.0
 0044184,0.00028563,0.00144134,-0.00069501,0.00057076,-0.00000002,0.,0.
 00018669,-0.00004893,-0.00044184,0.00028556,-0.00144138,0.00069503,0.0
 5379194,-0.00000585,-0.28028412,0.08920998,0.00037893,-0.01350265,0.00
 551166,-0.00244970,0.00098387,-0.00215557,0.00000003,0.00096738,0.0001
 9206,0.00245000,0.00098374,-0.00215561,-0.00037961,-0.01350367,0.00551
 208,-0.00008304,0.00005424,-0.00025509,-0.00014239,-0.00084299,0.00055
 449,-0.00000002,-0.00037874,0.00003376,0.00008304,0.00005424,-0.000255
 07,0.00014233,-0.00084294,0.00055447,0.00000620,0.30078922,0.00000232,
 0.09226886,-0.08459809,-0.00060068,-0.01240640,0.00349564,-0.00181739,
 -0.00065849,-0.00072757,0.,0.00034942,-0.00003979,0.00181724,-0.000658
 54,-0.00072742,0.00060008,-0.01240552,0.00349529,0.00007643,-0.0001165
 1,-0.00019006,-0.00000045,-0.00033636,0.00024915,0.,0.00000429,0.00001
 002,-0.00007642,-0.00011651,-0.00019008,0.00000044,-0.00033640,0.00024
 918,-0.00000228,-0.09498824,0.08558748,-0.04909557,0.00000025,0.000003
 88,0.00025109,-0.00027342,-0.02927448,0.00096864,0.00068551,0.00018347
 ,-0.00033549,0.,0.,0.00096861,-0.00068555,-0.00018346,0.00025012,0.000
 27342,0.02927413,-0.00030425,0.00041180,0.00000828,-0.00001941,-0.0001
 0184,-0.00013962,0.00024530,0.,0.,-0.00030425,-0.00041180,-0.00000830,
 -0.00001941,0.00010184,0.00013962,-0.00049061,0.00000009,0.00000068,0.
 05464045,0.00000020,-0.05123573,-0.01461626,0.00062603,-0.00091606,-0.
 01600232,0.00071579,0.00051603,-0.00081678,0.,-0.00034510,0.00006647,-
 0.00071580,0.00051612,-0.00081675,-0.00062554,-0.00091611,-0.01600336,
 0.00067460,-0.00050628,-0.00012829,0.00012252,0.00007363,0.00010777,0.
 ,0.00009852,0.00005691,-0.00067459,-0.00050614,-0.00012842,-0.00012252
 ,0.00007362,0.00010777,-0.00000038,0.00376131,0.02895180,-0.00000044,0
 .05119348,0.00000383,-0.01698724,-0.30903005,-0.00023823,-0.00054475,-
 0.00900296,0.00025107,0.00077698,-0.00051835,0.,-0.00011887,0.00008772
 ,-0.00025101,0.00077697,-0.00051837,0.00023850,-0.00054473,-0.00900208
 ,-0.00012437,0.00013451,-0.00034055,-0.00003156,-0.00012656,0.00015925
 ,0.,-0.00020569,0.00006458,0.00012435,0.00013441,-0.00034046,0.0000315
 5,-0.00012656,0.00015925,0.00000011,-0.00113856,-0.00943254,-0.0000040
 4,0.01798882,0.33421606,-0.02003134,0.01310323,0.00899564,-0.23072787,
 0.10398739,0.06624535,-0.00030294,-0.00125951,-0.00033124,0.00079551,-
 0.00090814,-0.00004760,0.00043423,-0.00063293,0.00023179,-0.00367786,-
 0.00434136,-0.00305339,0.00003511,0.00010812,0.00007119,0.00004869,0.0
 0012309,-0.00011652,0.00028759,0.00022662,-0.00003130,0.00049501,-0.00
 080971,0.00036542,0.00028170,-0.00029795,-0.00025897,0.00092443,-0.000
 06475,0.00037238,0.00087838,0.00029601,-0.00029368,0.24965866,-0.01494
 276,0.00896575,0.00677684,0.10249689,-0.10648945,-0.03714898,0.0269648
 0,-0.01365282,-0.00965243,-0.00350119,-0.00448074,0.00158955,-0.000860
 95,-0.00059433,-0.00013671,-0.00287355,-0.00151353,-0.00156115,0.00015
 197,0.00010845,-0.00006112,0.00015225,0.00019909,0.00003364,0.00239792
 ,-0.00253928,0.00031173,0.00078603,0.00115371,-0.00075439,0.00096532,0
 .00059778,0.00005918,0.00046739,0.00073168,0.00047148,0.00074715,0.000
 45188,0.00003112,-0.10903362,0.11648981,-0.01105206,0.00651227,0.00321
 028,0.06902016,-0.03942464,-0.07400304,-0.00958071,0.00618493,0.001889
 33,0.00064469,0.00199088,-0.00018231,0.00021600,-0.00009296,-0.0002280
 9,-0.00131899,-0.00130997,-0.00036521,-0.00002354,-0.00003007,0.000055
 47,-0.00003302,0.00000883,-0.00003343,-0.00076905,0.00081632,0.0002291
 5,-0.00070834,0.00081468,0.00014233,0.00004584,-0.00048849,-0.00031248
 ,0.00067990,0.00011759,0.00017725,0.00027197,0.00060347,0.00056762,-0.
 07191092,0.03897309,0.07472465,-0.00178737,-0.00061273,-0.02856841,-0.
 04993848,0.00173237,0.00392520,-0.00119298,0.00020854,0.00052695,0.000
 22950,0.00004371,-0.00028391,-0.00021209,0.00003562,-0.00011328,0.0013
 6674,0.00007790,-0.00175192,0.00007532,-0.00007541,-0.00005780,0.00001
 457,0.00001986,0.00000808,0.00002074,-0.00008203,0.00005837,0.00043702
 ,-0.00142184,0.00060948,0.00002496,-0.00086931,0.00084101,0.00099115,0
 .00026067,0.00048837,-0.00426715,-0.00252882,-0.00178183,0.00137619,-0
 .00142282,0.02550467,0.05311261,-0.00109615,-0.00088165,-0.01786349,0.
 00224373,-0.04863846,0.00041097,-0.00274153,-0.00227732,0.03246901,-0.
 00044973,0.00113861,-0.00031068,-0.00003585,-0.00024759,0.00024184,0.0
 0097031,0.00019281,0.00025681,0.00004834,0.00007392,-0.00007757,0.0000
 3754,0.00010645,0.00000443,-0.00004162,-0.00003912,-0.00035001,0.00043
 516,-0.00592907,0.00072332,0.00023146,0.00075022,0.00195273,0.00056891
 ,0.00029383,-0.00026134,-0.00346403,-0.00081478,-0.00096800,-0.0010606
 0,0.00027150,-0.01469596,0.00494441,0.05645514,-0.00020232,-0.00075835
 ,-0.01130518,0.00257536,0.00304845,-0.30692590,0.00115221,-0.00046878,
 -0.01079097,0.00023319,-0.00025216,0.00034916,-0.00014923,0.00013097,-
 0.00025934,0.00154201,0.00044205,0.00080152,0.00003781,-0.00012635,-0.
 00003710,-0.00002181,0.00002254,-0.00008807,-0.00021614,0.00032051,0.0
 0011458,-0.00064753,0.00276468,0.00055455,-0.00084044,-0.00178234,0.00
 094573,-0.00002081,-0.00028920,0.00067498,-0.00190173,-0.00121188,0.00
 056138,-0.00054708,0.00042792,-0.00706641,-0.00069676,-0.00274672,0.33
 065697,-0.00178821,0.00061279,0.02856805,0.00136670,-0.00007797,0.0017
 5197,-0.00021209,-0.00003564,0.00011329,0.00022951,-0.00004369,0.00028
 390,-0.00119282,-0.00020854,-0.00052542,-0.04993843,-0.00173239,-0.003
 91703,0.00043705,0.00142151,-0.00060946,0.00002498,0.00086937,-0.00084
 096,0.00002074,0.00008201,-0.00005839,0.00007532,0.00007542,0.00005780
 ,0.00001457,-0.00001986,-0.00000808,0.00099114,-0.00026069,-0.00048838
 ,-0.00426704,0.00252898,0.00178164,0.00037865,0.00017601,-0.00030063,-
 0.00089038,-0.00000525,-0.00062471,0.05311219,0.00109675,-0.00088172,-
 0.01786454,-0.00097038,0.00019285,0.00025671,0.00003585,-0.00024759,0.
 00024184,0.00044976,0.00113858,-0.00031068,0.00274048,-0.00227739,0.03
 246914,-0.00224369,-0.04863829,0.00041097,-0.00043542,-0.00592911,0.00
 072334,-0.00023150,0.00075020,0.00195275,0.00004163,-0.00003912,-0.000
 35000,-0.00004833,0.00007392,-0.00007758,-0.00003754,0.00010645,0.0000
 0443,-0.00056893,0.00029386,-0.00026134,0.00346420,-0.00081500,-0.0009
 6796,-0.00009409,-0.00015230,0.00006752,0.00000530,0.00025524,0.000354
 44,-0.00494422,0.05645549,0.00020260,-0.00075833,-0.01130426,-0.001541
 96,0.00044211,0.00080154,0.00014923,0.00013096,-0.00025933,-0.00023320
 ,-0.00025214,0.00034916,-0.00115195,-0.00046877,-0.01079102,-0.0025670
 7,0.00304841,-0.30692609,0.00064763,0.00276471,0.00055455,0.00084034,-
 0.00178233,0.00094573,0.00021615,0.00032050,0.00011459,-0.00003782,-0.
 00012634,-0.00003710,0.00002181,0.00002254,-0.00008807,0.00002081,-0.0
 0028921,0.00067496,0.00190154,-0.00121188,0.00056150,-0.00005740,-0.00
 009769,0.00044469,0.00062463,0.00035441,0.00049638,0.00068788,-0.00274
 683,0.33065700,-0.02003133,-0.01310232,-0.00899611,-0.00367774,0.00434
 146,0.00305323,0.00043431,0.00063289,-0.00023178,0.00079570,0.00090789
 ,0.00004769,-0.00030424,0.00125881,0.00033081,-0.23073158,-0.10398152,
 -0.06625180,0.00049501,0.00080971,-0.00036545,0.00028165,0.00029797,0.
 00025898,0.00028747,-0.00022675,0.00003131,0.00003510,-0.00010811,-0.0
 0007119,0.00004867,-0.00012309,0.00011653,0.00092445,0.00006473,-0.000
 37234,0.00087834,-0.00029605,0.00029368,-0.00154070,-0.00096582,-0.000
 46221,0.00037863,0.00009407,0.00005740,0.00137707,0.00106102,0.0005473
 6,0.24966273,0.01494364,0.00896567,0.00677767,0.00287367,-0.00151380,-
 0.00156117,0.00086093,-0.00059439,-0.00013668,0.00350093,-0.00448088,0
 .00158965,-0.02696499,-0.01365187,-0.00965326,-0.10249107,-0.10648170,
 -0.03714976,-0.00078596,0.00115369,-0.00075438,-0.00096531,0.00059780,
 0.00005915,-0.00239804,-0.00253918,0.00031165,-0.00015196,0.00010846,-
 0.00006113,-0.00015225,0.00019911,0.00003363,-0.00046742,0.00073170,0.
 00047147,-0.00074717,0.00045192,0.00003108,0.00096589,0.00058748,0.000
 11201,-0.00017603,-0.00015229,-0.00009770,0.00142275,0.00027140,0.0004
 2794,0.10902746,0.11648175,0.01105157,0.00651144,0.00321034,0.00131886
 ,-0.00130986,-0.00036508,-0.00021600,-0.00009293,-0.00022811,-0.000644
 58,0.00199091,-0.00018232,0.00958088,0.00618463,0.00188963,-0.06902672
 ,-0.03942537,-0.07400734,0.00070835,0.00081470,0.00014230,-0.00004584,
 -0.00048848,-0.00031248,0.00076908,0.00081628,0.00022918,0.00002354,-0
 .00003008,0.00005547,0.00003302,0.00000883,-0.00003342,-0.00067988,0.0
 0011761,0.00017722,-0.00027194,0.00060346,0.00056763,0.00046215,0.0001
 1196,0.00055788,0.00030063,0.00006751,0.00044471,-0.02550495,-0.014694
 97,-0.00706720,0.07191806,0.03897386,0.07472930,0.00018825,-0.00002223
 ,0.00007973,0.00014000,0.00003401,-0.00003881,-0.00023416,0.00019885,-
 0.00021387,0.00055298,0.00128350,0.00025887,-0.00124582,0.00894217,-0.
 00407635,-0.00029992,-0.00028338,-0.00184740,-0.05024680,-0.01969453,0
 .00846081,-0.00024830,-0.00049204,0.00073435,-0.00031256,-0.00027409,0
 .00004159,0.00023854,-0.00016822,0.00000979,0.00003772,-0.00005499,-0.
 00000139,-0.00001977,-0.00000929,-0.00007512,0.00011170,-0.00018961,-0
 .00009629,-0.00001387,-0.00003594,0.00000611,-0.00002958,-0.00004757,0
 .00000233,0.00020705,0.00056799,-0.00021566,0.00021599,0.00017097,0.00
 008271,0.04768199,-0.00018907,0.00005981,-0.00003005,-0.00004484,-0.00
 005371,-0.00001862,-0.00000150,-0.00008680,0.00019865,-0.00034082,-0.0
 0108508,-0.00029632,0.00025830,-0.00210674,-0.00014277,0.00009517,0.00
 097905,0.00059111,-0.01821428,-0.29606561,0.08028995,0.00010618,0.0005
 8954,-0.00045507,-0.00053029,0.00120407,-0.00091142,-0.00007450,-0.000
 03224,-0.00002363,0.00001972,0.00004431,-0.00003395,0.00004644,-0.0000
 3659,0.00005072,-0.00011386,0.00016279,0.00006487,0.00004916,0.0000133
 3,0.00000034,0.00002602,0.00003080,0.00000828,0.00011318,-0.00014803,0
 .00014967,0.00010875,0.00023114,-0.00017758,0.02018424,0.31334366,0.00
 036662,-0.00019103,-0.00033197,0.00008972,0.00006453,0.00007966,-0.000
 32647,0.00008669,-0.00025163,0.00152583,0.00198287,0.00204151,0.002179
 74,0.03050807,-0.01038542,-0.00142480,-0.00109671,-0.00608596,0.006995
 25,0.07667335,-0.07184117,-0.00047608,0.00113238,0.00121763,0.00050808
 ,-0.00122740,0.00069063,0.00011762,0.00001133,0.00000743,0.00005219,-0
 .00005480,-0.00000975,-0.00013976,0.00009235,0.00014885,-0.00016037,0.
 00010078,0.00021526,-0.00005777,-0.00006087,0.00000810,0.00005022,0.00
 000641,0.00003664,-0.00042057,0.00176845,-0.00070139,-0.00003683,-0.00
 036987,0.00008025,-0.00609582,-0.08654744,0.07849484,-0.00000222,0.000
 20994,0.00009150,0.00005785,-0.00010391,0.00007496,0.00056929,-0.00039
 960,0.00008049,-0.00005989,0.00062148,-0.00262769,-0.00781317,-0.00263
 846,0.00139924,0.00006727,-0.00045994,0.00046647,-0.29247478,-0.077603
 82,-0.02542240,0.00029867,0.00013676,0.00146013,0.00005542,-0.00009320
 ,0.00027385,-0.00016728,0.00037648,0.00028481,-0.00009663,0.00011031,0
 .00004268,-0.00001716,0.00003625,-0.00010070,0.00000218,-0.00017352,-0
 .00012202,-0.00000582,0.00005775,-0.00000068,-0.00000038,0.00001229,-0
 .00004256,0.00024375,0.00017474,0.00000747,0.00023353,0.00049310,-0.00
 012196,0.00118227,0.00109445,0.00004598,0.31070026,0.00005573,-0.00021
 618,-0.00011303,-0.00005212,0.00005917,-0.00000966,0.00006565,-0.00020
 742,-0.00030193,-0.00043673,-0.00056361,-0.00020223,0.00286943,-0.0007
 8717,0.00141821,0.00064769,0.00012623,0.00009740,-0.07725022,-0.073075
 18,-0.00843716,-0.00016495,0.00012373,-0.00037314,-0.00030866,0.001134
 38,-0.00038039,0.00013722,-0.00022933,-0.00019552,-0.00008465,0.000043
 95,0.00005469,0.00000679,0.00000132,0.00007790,-0.00000293,0.00004758,
 0.00010047,-0.00002056,0.00000592,-0.00000380,-0.00000240,-0.00000682,
 0.00001396,-0.00008208,0.00007083,-0.00011942,0.00007272,-0.00026425,0
 .00045719,-0.02777043,-0.00496909,-0.00420756,0.08424588,0.07165356,0.
 00007850,-0.00011145,-0.00010403,-0.00006489,-0.00012249,0.00006929,0.
 00068957,-0.00066896,-0.00047698,-0.00373559,0.00069857,-0.00630678,-0
 .02848838,-0.00958278,-0.00237928,-0.00021759,-0.00079664,0.00087972,-
 0.02239333,-0.00712894,-0.04968809,-0.00067591,-0.00031481,0.00089068,
 0.00003381,-0.00055936,0.00056531,0.00004902,-0.00021943,-0.00023070,-
 0.00031406,0.00015334,0.00012455,0.00001352,0.00001745,0.00005919,0.00
 002318,0.00003390,0.00006076,0.00001046,0.00008862,-0.00002093,0.00000
 914,-0.00000320,0.00000560,0.00034723,-0.00009281,0.00020223,0.0002242
 0,0.00064505,-0.00011036,0.00982761,0.00157647,0.00030058,0.02748091,0
 .00872732,0.05385024,-0.00023812,0.00038374,-0.00034369,-0.00001470,0.
 00006917,-0.00011483,0.00002516,0.00020225,-0.00013283,0.00126545,0.00
 001115,0.00073202,0.00564190,-0.00737094,-0.00634214,0.00013243,0.0002
 0720,0.00060362,-0.13973897,0.09091670,0.09258572,0.00022724,0.0002375
 3,-0.00110544,-0.00018568,-0.00016422,0.00002757,-0.00165805,-0.000058
 08,-0.00016283,-0.00005796,-0.00003058,0.00007625,0.00002517,-0.000040
 81,0.00001718,-0.00014376,0.00063216,-0.00071459,0.00000326,-0.0000183
 1,0.00000586,-0.00002911,-0.00003974,0.00000949,-0.00003766,-0.0001914
 9,0.00003836,-0.00007368,0.00006666,0.00008560,0.00200778,-0.00255180,
 -0.00299140,-0.01338838,0.01784835,0.01655259,0.14762374,0.00052994,-0
 .00055135,0.00080631,0.00000555,0.00007955,0.00001246,0.00004895,-0.00
 005502,-0.00031898,0.00005498,0.00000014,-0.00039080,-0.00283890,0.001
 45837,0.00244790,-0.00026559,0.00000346,0.00005442,0.09056443,-0.13956
 310,-0.09155379,-0.00009433,0.00042945,0.00051735,-0.00050670,-0.00027
 869,-0.00028901,0.00032787,-0.00047944,-0.00031543,-0.00006115,-0.0000
 0875,0.00009690,-0.00011144,0.00003639,-0.00001490,0.00068700,-0.00080
 288,0.00078735,-0.00003732,0.00000026,-0.00000991,-0.00000681,-0.00004
 069,0.00002321,-0.00005362,0.00010039,-0.00019683,-0.00012169,-0.00001
 499,-0.00011679,0.01760530,-0.01259045,-0.01766596,-0.00603600,0.00683
 560,0.00732810,-0.10008675,0.14371939,-0.00018253,0.00017030,-0.000742
 39,-0.00014592,-0.00001832,0.00009094,-0.00035051,-0.00045016,-0.00060
 767,0.00094680,0.00070830,0.00148374,0.01985585,-0.01747099,-0.0158683
 9,0.00050187,-0.00112525,0.00114980,0.09037902,-0.09039942,-0.14009851
 ,-0.00327979,0.00084359,-0.00586531,-0.00038552,-0.00003701,0.00009529
 ,0.00033647,-0.00039958,-0.00044825,-0.00011489,0.00006725,0.00005758,
 -0.00001418,0.00000098,0.00040555,-0.00058247,0.00088321,0.00027163,0.
 00002345,0.00002182,-0.00000917,0.00010038,0.00003582,0.00009088,-0.00
 000244,-0.00012901,0.00020730,0.00006026,0.00019921,0.00000335,-0.0072
 8504,0.00567342,0.00655127,-0.00289224,0.00332013,0.00240800,-0.098354
 37,0.09806780,0.15046500,-0.00004372,-0.00012360,0.00000775,0.00005078
 ,0.00000754,0.00001753,-0.00005663,0.00021910,0.00009445,0.00191393,0.
 00012122,0.00015732,0.00524081,0.00094496,0.02206194,0.00041302,-0.000
 99044,0.00056771,-0.00271230,0.00216868,0.00191491,-0.07474473,-0.0031
 5606,-0.08299767,0.00003239,-0.00031256,0.00017912,0.00006067,0.000001
 28,-0.00000293,0.00005276,-0.00003545,-0.00001046,0.00000839,-0.000012
 36,-0.00001926,0.00002977,-0.00003188,-0.00000122,0.00000126,-0.000020
 78,-0.00001129,-0.00000308,-0.00000210,-0.00001998,0.00010266,0.000092
 72,-0.00025717,0.00003308,0.00004802,-0.00001733,-0.00008527,0.0000082
 0,-0.00011513,0.00023680,0.00015723,0.00004291,0.00045897,0.00010061,0
 .00125503,0.07625012,0.00004286,0.00008346,0.00026536,0.00002200,0.000
 01654,-0.00003358,-0.00002844,-0.00001936,0.00010097,-0.00089727,0.000
 57692,0.00102048,-0.00635462,-0.00175116,-0.01440074,-0.00063008,0.000
 66851,-0.00152728,0.00205350,-0.00129612,-0.00133500,-0.00188426,-0.04
 966821,-0.00635832,0.00004099,-0.00009632,-0.00043621,-0.00002348,-0.0
 0002038,-0.00000215,0.00002374,-0.00003013,0.00000593,-0.00000769,-0.0
 0000627,-0.00000391,-0.00011027,0.00006648,0.00003452,-0.00000183,-0.0
 0000718,0.00001374,0.00000858,-0.00000061,0.00001864,0.00039288,-0.000
 87167,0.00019904,0.00011485,-0.00003900,-0.00003877,0.00007318,0.00015
 681,-0.00026975,0.00019750,-0.00009024,0.00021588,0.00004647,0.0004053
 2,-0.00088378,0.00029644,0.04785487,0.00007591,-0.00009750,0.00033558,
 -0.00004495,0.00002205,-0.00007779,0.00005385,0.00008819,0.00000115,-0
 .00123586,-0.00086807,0.00126799,-0.00664641,0.00044383,-0.01725397,-0
 .00025014,0.00139955,0.00033713,0.00377591,-0.00280728,-0.00161138,-0.
 07952365,-0.00826762,-0.29214181,0.00028724,0.00105454,0.00025583,-0.0
 0005654,-0.00002534,-0.00000329,0.00003078,-0.00003718,-0.00005479,0.0
 0007775,-0.00004696,0.00000565,-0.00011887,0.00011864,0.00009515,0.000
 01276,0.00001081,0.00001650,0.00001415,-0.00000713,0.00003303,-0.00005
 256,-0.00053188,0.00064876,0.00001439,0.00014801,0.00013172,-0.0000342
 2,0.00004191,0.00024103,0.00002298,0.00007538,0.00045704,-0.00029354,0
 .00009841,-0.00126435,0.08479436,0.01076837,0.31295136,0.00022536,0.00
 007169,0.00001149,0.00008130,-0.00021415,0.00003105,0.00029953,-0.0012
 7763,0.00016193,-0.00378038,0.00259581,0.00297926,-0.01753336,-0.01136
 321,-0.00321104,0.00069624,-0.00123776,-0.00043375,0.00028867,-0.00027
 372,-0.00103043,-0.25542373,-0.11338569,-0.00845857,0.00008754,0.00058
 760,-0.00031616,-0.00027956,0.00012097,-0.00005607,-0.00020938,0.00022
 291,0.00013993,0.00000866,0.00001869,0.00000775,0.00004413,-0.00006218
 ,-0.00001463,0.00002166,0.00009983,0.00001329,0.00001106,0.00001779,-0
 .00001718,-0.00005762,0.00012990,-0.00013611,0.00017696,0.00069780,0.0
 0009252,0.00005784,0.00008128,-0.00009343,0.00055583,0.00003974,0.0003
 9265,0.00032510,0.00023940,-0.00001234,-0.00566185,-0.00279591,0.00130
 305,0.27394469,-0.00007412,0.00026935,0.00003539,0.00003062,0.00014490
 ,0.00001946,0.00043530,0.00054412,-0.00003912,0.00340277,-0.00298197,-
 0.00191254,0.01512286,0.00656952,0.00041544,0.00091056,0.00024500,-0.0
 0003716,-0.00006389,0.00021733,0.00039171,-0.11630538,-0.11161957,-0.0
 0435675,-0.00207700,0.00060740,0.00070037,0.00002418,-0.00001607,0.000
 00650,0.00009102,-0.00007930,-0.00004373,-0.00007404,0.00005352,0.0000
 2120,-0.00003259,0.00000617,0.00002701,-0.00002939,-0.00001948,-0.0000
 0323,0.00000979,-0.00001522,0.00000342,-0.00014531,0.00008158,0.000196
 27,0.00028855,-0.00030873,-0.00026804,-0.00002899,0.00003821,-0.000042
 01,0.00002617,0.00011863,-0.00005881,0.00004487,-0.00001539,0.00021665
 ,0.00131304,-0.00037468,0.00026947,0.12245852,0.11621432,-0.00002413,0
 .00012043,-0.00017051,-0.00001620,0.00010041,-0.00004465,0.00007978,0.
 00077402,0.00007182,0.00298378,-0.00175337,-0.00099975,0.01432188,0.00
 968398,0.00010037,-0.00018925,0.00068188,0.00046986,0.00047310,0.00049
 857,0.00018782,-0.01075595,-0.00551451,-0.04958580,0.00054601,-0.00019
 477,0.00025852,0.00004664,-0.00003040,0.00004770,0.00017095,-0.0001614
 1,-0.00011289,-0.00004843,0.00001316,0.00000954,0.00002918,-0.00000548
 ,-0.00001252,-0.00000655,-0.00003791,0.00000367,-0.00000244,-0.0000133
 9,0.00001580,-0.00016109,-0.00009332,-0.00006486,-0.00015135,-0.000237
 57,0.00009920,0.00007020,-0.00007075,-0.00001019,0.00016017,-0.0002812
 7,-0.00092918,-0.00025158,-0.00006647,0.00020735,-0.02540563,-0.014676
 91,0.00232909,0.00796034,0.00758906,0.04804857,0.00057818,0.00121092,-
 0.00026200,0.00026480,-0.00003257,-0.00000846,-0.00035118,0.00010923,-
 0.00024921,0.00114036,0.00092299,-0.00019272,-0.00232950,0.02039342,-0
 .00838279,-0.00316404,0.00110099,0.00239721,0.00056000,-0.00043274,-0.
 00126141,-0.05008481,0.03060788,-0.01170156,-0.00113167,-0.00149305,0.
 00077932,0.00017558,-0.00009378,0.00003779,0.00004976,-0.00007819,-0.0
 0002093,-0.00037797,0.00021866,0.00009832,-0.00003286,0.00000192,0.000
 05691,-0.00003595,-0.00007618,0.00001542,-0.00000233,-0.00002337,-0.00
 000167,-0.00014369,-0.00017743,0.00022297,0.00013002,0.00023473,0.0001
 3092,0.00013957,-0.00015191,0.00054571,-0.00002348,-0.00013702,0.00006
 900,-0.00014538,-0.00016609,-0.00013172,-0.00160108,0.00943683,-0.0022
 1143,0.00618482,-0.02537885,0.01012295,0.05022272,-0.00047514,-0.00076
 502,0.00053228,-0.00016040,-0.00009474,-0.00009554,0.00004694,0.000065
 82,0.00008665,-0.00037744,-0.00184916,-0.00042886,0.00100656,-0.014045
 26,0.00575882,0.00320727,-0.00047959,-0.00229634,-0.00032768,0.0006607
 8,0.00097528,0.03385525,-0.29179272,0.08649751,-0.00360913,0.00135199,
 0.00064961,-0.00005094,0.00003724,-0.00000749,-0.00000490,0.00003922,-
 0.00002568,0.00032604,-0.00019337,-0.00011686,0.00006963,-0.00002087,-
 0.00008672,0.00007483,0.00005514,-0.00000271,-0.00000480,0.00001346,0.
 00001622,-0.00005529,0.00022851,-0.00009052,-0.00012067,0.00021296,-0.
 00000992,0.00001392,0.00023480,-0.00060573,0.00002691,-0.00008018,-0.0
 0008795,-0.00000861,0.00033066,0.00006431,-0.00075433,0.00440845,-0.00
 192766,0.00321810,-0.00972084,0.00366658,-0.03594777,0.31135983,-0.000
 09557,-0.00102034,0.00081168,-0.00003938,0.00000672,-0.00009176,0.0000
 3096,-0.00017843,0.00014673,-0.00073582,0.00053643,0.00045567,0.001141
 21,-0.01836430,0.00550749,0.00294417,-0.00096907,-0.00200716,-0.000078
 91,-0.00097400,0.00110763,-0.01325608,0.08913703,-0.08123694,0.0011735
 3,-0.00002359,-0.00078798,-0.00003366,0.00001434,0.00002732,-0.0000072
 0,0.00001726,-0.00002723,0.00033293,-0.00021556,-0.00007158,-0.0001181
 8,0.00009365,-0.00001006,0.00004523,0.00001000,0.00001841,0.00000879,0
 .00000570,0.00002300,0.00010317,-0.00015288,0.00037597,0.00001271,0.00
 020868,-0.00002846,0.00037885,-0.00000200,-0.00051041,-0.00019086,0.00
 003636,0.00003617,-0.00008145,0.00012917,0.00019546,-0.00217657,0.0272
 8658,-0.00682401,0.00065097,-0.00311834,0.00005155,0.00998057,-0.09247
 659,0.08283531,-0.00000222,-0.00020996,-0.00009150,0.00006727,0.000459
 97,-0.00046649,-0.00781401,0.00263903,-0.00139938,-0.00006010,-0.00062
 152,0.00262788,0.00056932,0.00039959,-0.00008046,0.00005786,0.00010392
 ,-0.00007496,-0.00016730,-0.00037647,-0.00028483,-0.00009664,-0.000110
 31,-0.00004269,0.00005546,0.00009325,-0.00027388,-0.29247050,0.0776122
 7,0.02541450,0.00029869,-0.00013676,-0.00146016,-0.00001716,-0.0000362
 5,0.00010070,0.00000218,0.00017352,0.00012202,0.00023361,-0.00049317,0
 .00012198,0.00024375,-0.00017474,-0.00000747,-0.00000039,-0.00001229,0
 .00004256,-0.00000582,-0.00005776,0.00000068,0.00005406,-0.00000594,0.
 00002614,-0.00013724,0.00007426,0.00007641,-0.00003897,0.00023139,0.00
 022739,0.00000970,0.00000868,0.00002345,-0.00007416,0.00000541,0.00001
 908,0.00003268,-0.00000220,-0.00000194,0.31069560,-0.00005573,-0.00021
 618,-0.00011304,-0.00064770,0.00012625,0.00009741,-0.00286923,-0.00078
 715,0.00141817,0.00043672,-0.00056360,-0.00020232,-0.00006568,-0.00020
 743,-0.00030193,0.00005212,0.00005916,-0.00000965,-0.00013722,-0.00022
 932,-0.00019551,0.00008465,0.00004396,0.00005469,0.00030872,0.00113436
 ,-0.00038038,0.07725869,-0.07308103,-0.00843567,0.00016495,0.00012373,
 -0.00037308,-0.00000679,0.00000132,0.00007789,0.00000293,0.00004758,0.
 00010046,-0.00007275,-0.00026419,0.00045716,0.00008208,0.00007083,-0.0
 0011942,0.00000240,-0.00000682,0.00001396,0.00002057,0.00000592,-0.000
 00380,-0.00003541,0.00004405,-0.00000759,-0.00007426,0.00011546,0.0000
 5991,-0.00006556,0.00010532,0.00018832,-0.00001559,0.00000911,0.000021
 27,0.00003016,-0.00000750,-0.00001480,-0.00000567,0.00000211,-0.000001
 01,-0.08425512,0.07165989,-0.00007850,-0.00011145,-0.00010403,0.000217
 55,-0.00079665,0.00087970,0.02848785,-0.00958379,-0.00237838,0.0037358
 1,0.00069841,-0.00630656,-0.00068956,-0.00066891,-0.00047700,0.0000648
 8,-0.00012249,0.00006929,-0.00004903,-0.00021943,-0.00023072,0.0003140
 6,0.00015333,0.00012456,-0.00003386,-0.00055935,0.00056530,0.02238547,
 -0.00712734,-0.04968661,0.00067588,-0.00031484,0.00089066,-0.00001353,
 0.00001745,0.00005920,-0.00002318,0.00003391,0.00006076,-0.00022419,0.
 00064503,-0.00011034,-0.00034724,-0.00009280,0.00020222,-0.00000914,-0
 .00000320,0.00000560,-0.00001045,0.00008861,-0.00002093,0.00001582,-0.
 00004168,-0.00005457,-0.00007641,0.00005991,0.00019927,-0.00001345,0.0
 0025101,0.00020904,-0.00002820,0.00001465,0.00003237,0.00012425,-0.000
 02958,-0.00004508,-0.00006742,0.00000862,-0.00000406,-0.02747254,0.008
 72570,0.05384844,0.00018827,0.00002221,-0.00007971,-0.00030001,0.00028
 347,0.00184760,-0.00124625,-0.00894316,0.00407663,0.00055300,-0.001283
 61,-0.00025893,-0.00023418,-0.00019885,0.00021387,0.00014000,-0.000034
 02,0.00003881,0.00023856,0.00016816,-0.00000977,0.00003772,0.00005499,
 0.00000139,-0.00031258,0.00027416,-0.00004167,-0.05024494,0.01968294,-
 0.00845714,-0.00024828,0.00049204,-0.00073442,-0.00001978,0.00000929,0
 .00007512,0.00011171,0.00018963,0.00009627,0.00021598,-0.00017097,-0.0
 0008271,0.00020700,-0.00056806,0.00021570,-0.00002958,0.00004757,-0.00
 000233,-0.00001387,0.00003595,-0.00000611,-0.00022578,0.00006647,-0.00
 001990,0.00005406,0.00003540,-0.00001581,0.00015716,-0.00011716,0.0000
 1837,-0.00000606,-0.00000463,-0.00001162,0.00003276,0.00000559,-0.0000
 0624,-0.00003777,0.00001717,0.00000819,0.00118358,0.02777032,-0.009827
 51,0.04768022,0.00018906,0.00005980,-0.00003004,-0.00009514,0.00097905
 ,0.00059105,-0.00025831,-0.00210641,-0.00014293,0.00034077,-0.00108504
 ,-0.00029630,0.00000149,-0.00008680,0.00019864,0.00004483,-0.00005371,
 -0.00001862,0.00007450,-0.00003226,-0.00002362,-0.00001971,0.00004431,
 -0.00003395,0.00053035,0.00120406,-0.00091122,0.01820254,-0.29606720,0
 .08029075,-0.00010613,0.00058953,-0.00045505,-0.00004644,-0.00003658,0
 .00005072,0.00011386,0.00016279,0.00006486,-0.00010875,0.00023116,-0.0
 0017759,-0.00011320,-0.00014800,0.00014966,-0.00002601,0.00003080,0.00
 000828,-0.00004916,0.00001334,0.00000034,-0.00006646,0.00010192,0.0000
 1945,0.00000594,0.00004405,-0.00004168,0.00004319,-0.00006500,0.000068
 37,-0.00000041,-0.00000251,-0.00000022,0.00000184,-0.00000173,0.000004
 88,-0.00000587,0.00000928,0.00001338,-0.00109473,-0.00497009,0.0015768
 1,-0.02017154,0.31334536,-0.00036662,-0.00019103,-0.00033198,0.0014249
 5,-0.00109676,-0.00608585,-0.00217831,0.03050789,-0.01038537,-0.001525
 80,0.00198288,0.00204145,0.00032647,0.00008668,-0.00025161,-0.00008972
 ,0.00006453,0.00007966,-0.00011762,0.00001135,0.00000742,-0.00005218,-
 0.00005480,-0.00000975,-0.00050813,-0.00122717,0.00069013,-0.00699169,
 0.07667414,-0.07184159,0.00047608,0.00113237,0.00121762,0.00013976,0.0
 0009234,0.00014886,0.00016036,0.00010079,0.00021526,0.00003682,-0.0003
 6988,0.00008025,0.00042066,0.00176841,-0.00070136,-0.00005022,0.000006
 41,0.00003664,0.00005777,-0.00006087,0.00000811,0.00001988,0.00001945,
 0.00008914,-0.00002614,-0.00000759,-0.00005457,0.00013137,-0.00006669,
 -0.00001575,0.00000960,0.00000503,-0.00000880,-0.00003833,-0.00001086,
 0.00000663,0.00004213,-0.00002741,-0.00000248,-0.00004611,-0.00420668,
 0.00030026,0.00609160,-0.08654842,0.07849568,-0.00023817,-0.00038376,0
 .00034370,0.00013248,-0.00020715,-0.00060362,0.00564268,0.00737130,0.0
 0634289,0.00126551,-0.00001123,-0.00073205,0.00002513,-0.00020223,0.00
 013284,-0.00001472,-0.00006917,0.00011483,-0.00165805,0.00005813,0.000
 16273,-0.00005796,0.00003058,-0.00007626,-0.00018567,0.00016422,-0.000
 02759,-0.13974027,-0.09091392,-0.09258929,0.00022709,-0.00023755,0.001
 10565,0.00002518,0.00004081,-0.00001719,-0.00014384,-0.00063217,0.0007
 1459,-0.00007368,-0.00006666,-0.00008561,-0.00003765,0.00019150,-0.000
 03837,-0.00002910,0.00003973,-0.00000950,0.00000326,0.00001831,-0.0000
 0586,0.00015716,-0.00004320,-0.00013136,-0.00003897,0.00006557,0.00001
 346,-0.00218183,0.00009846,0.00000403,0.00002022,-0.00001731,-0.000036
 81,0.00002335,-0.00000105,-0.00000440,-0.00000467,0.00000266,0.0000004
 4,-0.01338839,-0.01784767,-0.01655282,0.00200688,0.00255108,0.00299060
 ,0.14762535,-0.00052998,-0.00055170,0.00080634,0.00026558,0.00000346,0
 .00005446,0.00283872,0.00145803,0.00244778,-0.00005501,0.00000017,-0.0
 0039075,-0.00004902,-0.00005495,-0.00031895,-0.00000554,0.00007954,0.0
 0001244,-0.00032777,-0.00047938,-0.00031540,0.00006116,-0.00000876,0.0
 0009691,0.00050670,-0.00027871,-0.00028900,-0.09056167,-0.13955626,-0.
 09155305,0.00009431,0.00042945,0.00051732,0.00011144,0.00003640,-0.000
 01485,-0.00068702,-0.00080271,0.00078742,0.00012169,-0.00001500,-0.000
 11679,0.00005364,0.00010038,-0.00019683,0.00000681,-0.00004069,0.00002
 321,0.00003732,0.00000025,-0.00000991,0.00011717,-0.00006501,-0.000066
 68,-0.00023138,0.00010531,0.00025099,-0.00009826,0.00095198,0.00036840
 ,-0.00001943,0.00001742,0.00003794,0.00001583,0.00000013,-0.00001054,-
 0.00000606,-0.00000807,-0.00001071,0.00603653,0.00683602,0.00732892,-0
 .01760529,-0.01258989,-0.01766663,0.10008344,0.14371197,0.00018255,0.0
 0017059,-0.00074245,-0.00050193,-0.00112525,0.00114978,-0.01985590,-0.
 01747006,-0.01586886,-0.00094677,0.00070833,0.00148370,0.00035055,-0.0
 0045020,-0.00060765,0.00014589,-0.00001832,0.00009098,-0.00033659,-0.0
 0039959,-0.00044836,0.00011488,0.00006725,0.00005758,0.00038550,-0.000
 03703,0.00009529,-0.09038250,-0.09039892,-0.14010443,0.00328002,0.0008
 4346,-0.00586517,0.00001418,0.00000097,0.00040550,0.00058248,0.0008832
 4,0.00027156,-0.00006026,0.00019921,0.00000335,0.00000243,-0.00012900,
 0.00020730,-0.00010039,0.00003583,0.00009088,-0.00002344,0.00002182,-0
 .00000918,-0.00001837,0.00006838,-0.00001575,-0.00022740,0.00018835,0.
 00020904,-0.00000428,0.00036849,0.00099924,-0.00002639,0.00001423,0.00
 004229,0.00002586,-0.00001516,-0.00001561,-0.00002448,0.00001653,0.000
 00168,0.00289187,0.00331948,0.00240757,0.00728512,0.00567323,0.0065515
 9,0.09835834,0.09806687,0.15047167,-0.00004372,0.00012361,-0.00000775,
 0.00041309,0.00099040,-0.00056776,0.00524151,-0.00094522,-0.02206176,0
 .00191393,-0.00012126,-0.00015728,-0.00005664,-0.00021911,-0.00009445,
 0.00005078,-0.00000755,-0.00001753,0.00006067,-0.00000128,0.00000293,0
 .00005277,0.00003545,0.00001047,0.00003237,0.00031251,-0.00017915,-0.0
 0271227,-0.00216854,-0.00191500,-0.07474968,0.00315719,0.08300434,0.00
 000840,0.00001237,0.00001926,0.00002977,0.00003188,0.00000122,0.000033
 07,-0.00004803,0.00001733,0.00010262,-0.00009274,0.00025716,-0.0000030
 8,0.00000211,0.00001998,0.00000127,0.00002078,0.00001129,-0.00000606,0
 .00000041,-0.00000960,0.00000970,0.00001559,0.00002820,0.00002021,0.00
 001943,0.00002639,-0.00001397,-0.00000196,0.00001821,0.00002517,0.0000
 0153,-0.00000903,-0.00001182,0.00000450,0.00000421,0.00023679,-0.00015
 725,-0.00004292,-0.00008528,-0.00000820,0.00011511,0.00045899,-0.00010
 061,-0.00125501,0.07625549,-0.00004286,0.00008346,0.00026535,0.0006301
 5,0.00066845,-0.00152724,0.00635480,-0.00175136,-0.01439968,0.00089720
 ,0.00057691,0.00102052,0.00002844,-0.00001935,0.00010098,-0.00002200,0
 .00001654,-0.00003358,0.00002348,-0.00002038,-0.00000215,-0.00002375,-
 0.00003013,0.00000593,-0.00004100,-0.00009632,-0.00043620,-0.00205340,
 -0.00129596,-0.00133500,0.00188530,-0.04966835,-0.00636119,0.00000769,
 -0.00000627,-0.00000391,0.00011027,0.00006648,0.00003452,-0.00011485,-
 0.00003899,-0.00003877,-0.00039292,-0.00087167,0.00019901,-0.00000858,
 -0.00000060,0.00001864,0.00000183,-0.00000718,0.00001374,0.00000463,-0
 .00000251,0.00000504,-0.00000868,0.00000911,0.00001465,0.00001731,0.00
 001742,0.00001423,0.00000197,0.00001096,-0.00000066,-0.00000797,0.0000
 0216,-0.00000023,0.00000870,-0.00000321,0.00000386,-0.00019752,-0.0000
 9023,0.00021588,-0.00007316,0.00015681,-0.00026976,-0.00004645,0.00040
 533,-0.00088373,-0.00029774,0.04785484,-0.00007592,-0.00009750,0.00033
 558,0.00025020,0.00139958,0.00033712,0.00664715,0.00044356,-0.01725448
 ,0.00123584,-0.00086811,0.00126804,-0.00005385,0.00008819,0.00000115,0
 .00004496,0.00002205,-0.00007779,0.00005654,-0.00002534,-0.00000329,-0
 .00003078,-0.00003718,-0.00005479,-0.00028721,0.00105458,0.00025580,-0
 .00377606,-0.00280721,-0.00161156,0.07953024,-0.00827032,-0.29213662,-
 0.00007775,-0.00004696,0.00000565,0.00011887,0.00011864,0.00009515,-0.
 00001439,0.00014801,0.00013172,0.00005252,-0.00053188,0.00064877,-0.00
 001415,-0.00000714,0.00003303,-0.00001276,0.00001081,0.00001650,0.0000
 1163,-0.00000022,-0.00000880,-0.00002345,0.00002127,0.00003237,0.00003
 681,0.00003794,0.00004230,-0.00001821,-0.00000066,0.00003573,-0.000011
 15,0.00001416,0.00002286,-0.00000066,0.00000496,-0.00000007,-0.0000229
 8,0.00007538,0.00045704,0.00003421,0.00004191,0.00024103,0.00029360,0.
 00009840,-0.00126438,-0.08480146,0.01077131,0.31294596,0.00057814,-0.0
 0121094,0.00026201,-0.00316404,-0.00110087,-0.00239734,-0.00233049,-0.
 02039350,0.00838274,0.00114027,-0.00092325,0.00019271,-0.00035121,-0.0
 0010921,0.00024920,0.00026482,0.00003255,0.00000847,0.00017559,0.00009
 378,-0.00003779,0.00004976,0.00007820,0.00002094,-0.00113115,0.0014933
 5,-0.00077921,0.00055999,0.00043278,0.00126143,-0.05008778,-0.03061994
 ,0.01170589,-0.00037797,-0.00021864,-0.00009833,-0.00003286,-0.0000019
 2,-0.00005691,0.00013002,-0.00023473,-0.00013092,-0.00014367,0.0001774
 5,-0.00022299,-0.00000233,0.00002337,0.00000167,-0.00003594,0.00007619
 ,-0.00001542,-0.00003777,0.00000587,-0.00004214,0.00003268,0.00000567,
 0.00006742,-0.00000467,0.00000606,0.00002448,-0.00001182,-0.00000870,0
 .00000066,0.00003913,0.00000840,-0.00001472,-0.00003942,0.00003131,-0.
 00000253,-0.00002348,0.00013702,-0.00006900,0.00013961,0.00015190,-0.0
 0054573,-0.00014538,0.00016611,0.00013171,-0.00160153,-0.00943748,0.00
 221151,0.05022551,0.00047507,-0.00076499,0.00053229,-0.00320710,-0.000
 47944,-0.00229634,-0.00100720,-0.01404436,0.00575846,0.00037738,-0.001
 84909,-0.00042885,-0.00004695,0.00006582,0.00008665,0.00016039,-0.0000
 9474,-0.00009553,0.00005094,0.00003724,-0.00000748,0.00000490,0.000039
 22,-0.00002568,0.00360911,0.00135161,0.00064970,0.00032766,0.00066075,
 0.00097525,-0.03386724,-0.29179048,0.08649581,-0.00032603,-0.00019334,
 -0.00011686,-0.00006963,-0.00002087,-0.00008672,0.00012067,0.00021297,
 -0.00000991,0.00005531,0.00022850,-0.00009051,0.00000480,0.00001346,0.
 00001622,-0.00007482,0.00005514,-0.00000271,-0.00001717,0.00000928,-0.
 00002741,0.00000220,0.00000211,0.00000862,-0.00000266,-0.00000807,0.00
 001653,-0.00000450,-0.00000320,0.00000496,0.00000180,0.00001012,-0.000
 00034,-0.00003131,0.00003266,0.00000894,-0.00002691,-0.00008018,-0.000
 08794,-0.00001391,0.00023476,-0.00060574,0.00000862,0.00033066,0.00006
 431,0.00075461,0.00440876,-0.00192771,0.03596078,0.31135737,0.00009552
 ,-0.00102039,0.00081169,-0.00294426,-0.00096899,-0.00200734,-0.0011421
 5,-0.01836499,0.00550771,0.00073585,0.00053635,0.00045570,-0.00003098,
 -0.00017843,0.00014673,0.00003940,0.00000672,-0.00009176,0.00003367,0.
 00001434,0.00002732,0.00000720,0.00001727,-0.00002723,-0.00117344,-0.0
 0002349,-0.00078834,0.00007886,-0.00097398,0.00110768,0.01326046,0.089
 13539,-0.08123597,-0.00033295,-0.00021555,-0.00007159,0.00011818,0.000
 09364,-0.00001006,-0.00001270,0.00020868,-0.00002846,-0.00010319,-0.00
 015287,0.00037596,-0.00000879,0.00000570,0.00002300,-0.00004523,0.0000
 1001,0.00001841,-0.00000820,0.00001338,-0.00000249,0.00000194,-0.00000
 101,-0.00000405,-0.00000044,-0.00001071,0.00000168,-0.00000421,0.00000
 386,-0.00000007,-0.00000221,-0.00000131,-0.00000296,0.00000253,0.00000
 895,0.00001109,0.00019086,0.00003636,0.00003617,-0.00037883,-0.0000019
 6,-0.00051043,0.00008144,0.00012917,0.00019547,0.00217776,0.02728622,-
 0.00682386,-0.00998522,-0.09247482,0.08283478,0.00022536,-0.00007169,-
 0.00001148,0.00069625,0.00123773,0.00043377,-0.01753317,0.01136382,0.0
 0321051,-0.00378043,-0.00259573,-0.00297942,0.00029956,0.00127762,-0.0
 0016192,0.00008131,0.00021415,-0.00003104,-0.00027957,-0.00012096,0.00
 005605,-0.00020939,-0.00022290,-0.00013994,0.00008761,-0.00058758,0.00
 031618,0.00028866,0.00027370,0.00103044,-0.25541580,0.11339128,0.00845
 192,0.00000866,-0.00001869,-0.00000775,0.00004413,0.00006218,0.0000146
 4,0.00017702,-0.00069783,-0.00009254,-0.00005763,-0.00012990,0.0001361
 2,0.00001106,-0.00001779,0.00001718,0.00002166,-0.00009983,-0.00001329
 ,0.00003276,-0.00000184,0.00003833,-0.00007415,-0.00003015,-0.00012425
 ,0.00002335,-0.00001583,-0.00002585,0.00002517,0.00000796,0.00001115,-
 0.00010975,0.00003145,0.00006293,0.00003912,-0.00000180,0.00000221,0.0
 0055582,-0.00003974,-0.00039260,0.00005784,-0.00008128,0.00009343,0.00
 032508,-0.00023941,0.00001235,-0.00566257,0.00279657,-0.00130329,0.006
 18601,-0.00321883,-0.00065089,0.27393600,0.00007412,0.00026936,0.00003
 540,-0.00091054,0.00024500,-0.00003721,-0.01512195,0.00656966,0.000414
 84,-0.00340269,-0.00298174,-0.00191254,-0.00043529,0.00054409,-0.00003
 913,-0.00003062,0.00014490,0.00001946,-0.00002417,-0.00001606,0.000006
 50,-0.00009101,-0.00007929,-0.00004373,0.00207698,0.00060734,0.0007004
 3,0.00006388,0.00021732,0.00039167,0.11631093,-0.11162820,-0.00435340,
 0.00007404,0.00005352,0.00002120,0.00003259,0.00000616,0.00002701,-0.0
 0028860,-0.00030864,-0.00026802,0.00014531,0.00008157,0.00019627,-0.00
 000979,-0.00001522,0.00000342,0.00002938,-0.00001948,-0.00000323,-0.00
 000559,-0.00000173,-0.00001086,-0.00000540,-0.00000750,-0.00002957,0.0
 0000105,0.00000013,-0.00001516,-0.00000153,0.00000217,0.00001416,-0.00
 003145,0.00003801,0.00003051,-0.00000840,0.00001012,-0.00000131,-0.000
 02618,0.00011862,-0.00005878,0.00002899,0.00003821,-0.00004201,-0.0000
 4489,-0.00001538,0.00021664,-0.00131288,-0.00037472,0.00026947,0.02537
 841,-0.00972165,-0.00311752,-0.12246470,0.11622344,0.00002415,0.000120
 42,-0.00017051,0.00018929,0.00068191,0.00046988,-0.01432208,0.00968488
 ,0.00010001,-0.00298393,-0.00175335,-0.00099993,-0.00007975,0.00077406
 ,0.00007181,0.00001621,0.00010042,-0.00004465,-0.00004665,-0.00003040,
 0.00004770,-0.00017096,-0.00016141,-0.00011290,-0.00054603,-0.00019476
 ,0.00025851,-0.00047308,0.00049859,0.00018784,0.01074928,-0.00551134,-
 0.04958519,0.00004843,0.00001316,0.00000954,-0.00002917,-0.00000548,-0
 .00001252,0.00015133,-0.00023755,0.00009921,0.00016109,-0.00009333,-0.
 00006485,0.00000244,-0.00001339,0.00001580,0.00000655,-0.00003792,0.00
 000367,0.00000624,0.00000488,0.00000664,-0.00001908,-0.00001480,-0.000
 04508,0.00000440,-0.00001055,-0.00001561,0.00000903,-0.00000023,0.0000
 2286,-0.00006293,0.00003052,0.00006363,0.00001472,-0.00000034,-0.00000
 296,-0.00016012,-0.00028127,-0.00092917,-0.00007020,-0.00007075,-0.000
 01019,0.00025158,-0.00006649,0.00020736,0.02540483,-0.01467778,0.00232
 984,-0.01012260,0.00366684,0.00005122,-0.00795295,0.00758546,0.0480480
 4\\0.,-0.00000105,0.00000025,0.00000097,-0.00000011,0.00000157,0.00000
 006,-0.00000051,-0.00000070,0.,0.00000117,-0.00000056,-0.00000006,-0.0
 0000051,-0.00000070,-0.00000098,-0.00000011,0.00000158,-0.00000023,-0.
 00000106,-0.00000119,-0.00000021,0.00000082,0.00000010,0.,0.00000082,0
 .00000144,0.00000022,-0.00000105,-0.00000118,0.00000022,0.00000082,0.0
 0000010,0.,0.00000116,0.00000134,0.,-0.00000052,0.00000227,-0.00000071
 ,0.00000061,0.00000144,-0.00000002,0.00000104,-0.00000013,0.00000002,0
 .00000104,-0.00000013,0.00000071,0.00000061,0.00000144,0.00000002,-0.0
 0000208,-0.00000074,0.00000095,-0.00000068,0.00000024,-0.00000059,-0.0
 0000061,0.00000084,-0.00000056,0.00000109,-0.00000210,0.00000093,0.000
 00113,-0.00000053,0.00000006,-0.00000043,-0.00000120,-0.00000095,-0.00
 000068,0.00000025,-0.00000001,-0.00000208,-0.00000074,0.00000060,-0.00
 000062,0.00000084,0.00000055,0.00000109,-0.00000209,-0.00000005,-0.000
 00044,-0.00000120,-0.00000093,0.00000113,-0.00000052\\\@


 LIFE IS SO UNCERTAIN - EAT DESSERT FIRST.
 Job cpu time:       0 days  0 hours 54 minutes  9.3 seconds.
 Elapsed time:       0 days  0 hours  1 minutes 57.6 seconds.
 File lengths (MBytes):  RWF=    404 Int=      0 D2E=      0 Chk=     24 Scr=      8
 Normal termination of Gaussian 16 at Wed Feb 28 21:13:54 2024.
